24

C     3.343     1.152     0.000
N     2.081     1.753     0.000
C     0.907     0.913     0.000
O     0.889    -0.322     0.000
N    -0.269     1.651     0.000
C    -0.293     3.008     0.000
O    -1.363     3.588     0.000
C     0.968     3.602     0.000
C     2.090     3.099     0.000
N     3.234     3.849     0.000
C     4.431     3.096     0.000
N     4.296     1.826     0.000
C     3.153     4.964     0.000
H     3.287     0.068     0.000
H    -1.157     1.172     0.000
H     0.962     4.681     0.000
H     5.366     3.636     0.000
H     4.105     5.487     0.000
H     2.653     5.424     0.880
H     2.653     5.424    -0.880
C    -0.410    -1.108     0.000
H    -1.024    -0.890     0.884
H    -1.024    -0.890    -0.884
H    -0.116    -2.154     0.000
