9
 energy: -11.394339204911 gnorm: 0.000098435923 xtb: 6.7.1 (edcfbbe)
C           -0.79022450304630       -0.01150381065706       -0.00547767465719
C            0.73443847089733       -0.01822450040184        0.02741256372258
O            1.26008684533654        0.72726292915851        1.10078071436187
H           -1.15833479042564        1.01087814596348       -0.04567775406364
H           -1.14614672724387       -0.54879881344037       -0.88005344124985
H           -1.19355183004024       -0.49150254911329        0.88534419716205
H            1.10119589795484       -1.05507784031070        0.06827583463728
H            1.13501893259886        0.45272456400241       -0.87307826017106
H            0.88551770396849        0.39024187479884        1.92247382025796
