Ti Si
 1.0000000000000000
    -0.0000000000000003    4.1341000000000001    4.2773000000000003
     2.3999500000000000    0.0000000000000000    4.2773000000000003
     2.3999499999999996    4.1341000000000001    0.0000000000000004
 Ti  Si 
   2   4
Cartesian
  3.5999249999999994  6.2011500000000002  6.4159500000000005
  2.3999500000000000  4.1341000000000001  4.2773000000000003
  1.5369279800000002  2.0670499999999996  2.1386499999999993
  0.8630220199999999  2.0670499999999996  2.1386499999999993
  0.3369529800000000  4.1341000000000001  4.2773000000000003
  4.4629470199999997  4.1341000000000001  4.2773000000000012
