<UPF version="2.0.1">
<PP_INFO>
Generated by new atomic code, or converted to UPF format
Author:
Generation date:
Pseudopotential type: US
Element: Si
Functional:  SLA  PW   PBE  PBE
Suggested minimum cutoff for wavefunctions:   0. Ry
Suggested minimum cutoff for charge density:   0. Ry
The Pseudo was generated with a Non-Relativistic Calculation
L component and cutoff radius for Local Potential:  0   0.0000
Valence configuration:
nl pn  l   occ       Rcut    Rcut US       E pseu
3S  0  0  2.00     10.000      1.700     0.000000
3P  0  1  2.00     10.000      1.700     0.000000
Generation configuration: not available.
</PP_INFO>
<!--
END OF HUMAN READABLE SECTION
-->
<PP_HEADER generated="Generated by new atomic code, or converted to UPF format" author="" date="" comment="" element="Si" pseudo_type="US" relativistic="no" is_ultrasoft="true" is_paw="false" is_coulomb="false" has_so="false" has_wfc="false" has_gipaw="false" paw_as_gipaw="false" core_correction="true" functional=" SLA  PW   PBE  PBE" z_valence="4.000000000000e0" total_psenergy="-9.198701847970e0" wfc_cutoff="0.000000000000e0" rho_cutoff="0.000000000000e0" l_max="2" l_max_rho="0" l_local="0" mesh_size="899" number_of_wfc="2" number_of_proj="6"/>
<PP_MESH mesh="899" rmax="2.059449748600e2" zmesh="1.400000000000e1">
<PP_R>
0.000000000000000e0 1.094670684740000e-6 2.207738766680000e-6 3.339513438539999e-6
4.490309089450000e-6 5.660445392290000e-6 6.850247392429999e-6 8.060045598069999e-6
9.290176072070000e-6 1.054098052520000e-5 1.181280641130000e-5 1.310600702330000e-5
1.442094159220000e-5 1.575797538580000e-5 1.711747981110000e-5 1.849983251690000e-5
1.990541749900000e-5 2.133462520670000e-5 2.278785265140000e-5 2.426550351650000e-5
2.576798827040000e-5 2.729572427940000e-5 2.884913592450000e-5 3.042865471890000e-5
3.203471942810000e-5 3.366777619140000e-5 3.532827864620000e-5 3.701668805380000e-5
3.873347342779999e-5 4.047911166399999e-5 4.225408767310000e-5 4.405889451539999e-5
4.589403353780000e-5 4.776001451300000e-5 4.965735578089999e-5 5.158658439300000e-5
5.354823625850001e-5 5.554285629340000e-5 5.757099857160000e-5 5.963322647900000e-5
6.173011287000000e-5 6.386224022639999e-5 6.603020081960000e-5 6.823459687480000e-5
7.047604073840001e-5 7.275515504810000e-5 7.507257290589999e-5 7.742893805380001e-5
7.982490505290000e-5 8.226113946509999e-5 8.473831803760001e-5 8.725712889170001e-5
8.981827171310000e-5 9.242245794699999e-5 9.507041099509999e-5 9.776286641699999e-5
1.005005721340000e-4 1.032842886380000e-4 1.061147892020000e-4 1.089928600930000e-4
1.119193007940000e-4 1.148949242240000e-4 1.179205569650000e-4 1.209970394900000e-4
1.241252263960000e-4 1.273059866450000e-4 1.305402038010000e-4 1.338287762800000e-4
1.371726175940000e-4 1.405726566100000e-4 1.440298378050000e-4 1.475451215290000e-4
1.511194842730000e-4 1.547539189380000e-4 1.584494351130000e-4 1.622070593540000e-4
1.660278354690000e-4 1.699128248100000e-4 1.738631065650000e-4 1.778797780610000e-4
1.819639550650000e-4 1.861167720970000e-4 1.903393827440000e-4 1.946329599810000e-4
1.989986964950000e-4 2.034378050190000e-4 2.079515186680000e-4 2.125410912800000e-4
2.172077977660000e-4 2.219529344620000e-4 2.267778194940000e-4 2.316837931370000e-4
2.366722181940000e-4 2.417444803710000e-4 2.469019886620000e-4 2.521461757410000e-4
2.574784983610000e-4 2.629004377570000e-4 2.684135000570000e-4 2.740192167040000e-4
2.797191448770000e-4 2.855148679260000e-4 2.914079958110000e-4 2.974001655510000e-4
3.034930416750000e-4 3.096883166880000e-4 3.159877115390000e-4 3.223929761020000e-4
3.289058896580000e-4 3.355282613900000e-4 3.422619308890000e-4 3.491087686630000e-4
3.560706766550000e-4 3.631495887730000e-4 3.703474714260000e-4 3.776663240730000e-4
3.851081797760001e-4 3.926751057639999e-4 4.003692040110001e-4 4.081926118150000e-4
4.161475023950000e-4 4.242360854940000e-4 4.324606079940000e-4 4.408233545360001e-4
4.493266481590000e-4 4.579728509440001e-4 4.667643646690000e-4 4.757036314790001e-4
4.847931345610000e-4 4.940353988340000e-4 5.034329916540000e-4 5.129885235240001e-4
5.227046488190000e-4 5.325840665259999e-4 5.426295209910000e-4 5.528438026829999e-4
5.632297489679999e-4 5.737902448970001e-4 5.845282240100000e-4 5.954466691480000e-4
6.065486132810001e-4 6.178371403560000e-4 6.293153861470000e-4 6.409865391280000e-4
6.528538413630001e-4 6.649205893990001e-4 6.771901351900000e-4 6.896658870210000e-4
7.023513104590000e-4 7.152499293150000e-4 7.283653266210001e-4 7.417011456260001e-4
7.552610908120000e-4 7.690489289170000e-4 7.830684899849999e-4 7.973236684270000e-4
8.118184241080002e-4 8.265567834420001e-4 8.415428405119998e-4 8.567807582090001e-4
8.722747693850000e-4 8.880291780310001e-4 9.040483604750001e-4 9.203367665909999e-4
9.368989210410000e-4 9.537394245319998e-4 9.708629550880000e-4 9.882742693550000e-4
1.005978203920000e-3 1.023979676660000e-3 1.042283688100000e-3 1.060895322810000e-3
1.079819750790000e-3 1.099062228970000e-3 1.118628102590000e-3 1.138522806740000e-3
1.158751867870000e-3 1.179320905280000e-3 1.200235632730000e-3 1.221501860000000e-3
1.243125494510000e-3 1.265112542970000e-3 1.287469113030000e-3 1.310201414990000e-3
1.333315763530000e-3 1.356818579440000e-3 1.380716391450000e-3 1.405015837980000e-3
1.429723669030000e-3 1.454846748060000e-3 1.480392053850000e-3 1.506366682500000e-3
1.532777849330000e-3 1.559632890960000e-3 1.586939267290000e-3 1.614704563600000e-3
1.642936492660000e-3 1.671642896840000e-3 1.700831750340000e-3 1.730511161350000e-3
1.760689374350000e-3 1.791374772370000e-3 1.822575879330000e-3 1.854301362390000e-3
1.886560034410000e-3 1.919360856330000e-3 1.952712939690000e-3 1.986625549190000e-3
2.021108105210001e-3 2.056170186460000e-3 2.091821532630000e-3 2.128072047100000e-3
2.164931799690000e-3 2.202411029470000e-3 2.240520147560000e-3 2.279269740080000e-3
2.318670571060000e-3 2.358733585410000e-3 2.399469912030000e-3 2.440890866810000e-3
2.483007955840000e-3 2.525832878580000e-3 2.569377531120000e-3 2.613654009480000e-3
2.658674612960000e-3 2.704451847580000e-3 2.750998429530000e-3 2.798327288719999e-3
2.846451572339999e-3 2.895384648580000e-3 2.945140110270000e-3 2.995731778680000e-3
3.047173707380000e-3 3.099480186140000e-3 3.152665744860000e-3 3.206745157649999e-3
3.261733446920000e-3 3.317645887540000e-3 3.374498011120000e-3 3.432305610260000e-3
3.491084743020000e-3 3.550851737300000e-3 3.611623195440000e-3 3.673415998779999e-3
3.736247312380001e-3 3.800134589800000e-3 3.865095577920000e-3 3.931148321860000e-3
3.998311170040001e-3 4.066602779229999e-3 4.136042119779999e-3 4.206648480819999e-3
4.278441475690001e-3 4.351441047350000e-3 4.425667473940001e-3 4.501141374370000e-3
4.577883714110000e-3 4.655915810960000e-3 4.735259341010000e-3 4.815936344650000e-3
4.897969232660000e-3 4.981380792490000e-3 5.066194194550000e-3 5.152432998670000e-3
5.240121160630000e-3 5.329283038800002e-3 5.419943400960001e-3 5.512127431110000e-3
5.605860736540000e-3 5.701169354860001e-3 5.798079761309999e-3 5.896618876070000e-3
5.996814071749999e-3 6.098693180990001e-3 6.202284504200000e-3 6.307616817410000e-3
6.414719380279999e-3 6.523621944200000e-3 6.634354760590000e-3 6.746948589290001e-3
6.861434707060000e-3 6.977844916360000e-3 7.096211554089999e-3 7.216567500640001e-3
7.338946189000001e-3 7.463381614019999e-3 7.589908341910000e-3 7.718561519790001e-3
7.849376885480000e-3 7.982390777430000e-3 8.117640144799999e-3 8.255162557709999e-3
8.394996217730000e-3 8.537179968440000e-3 8.681753306240001e-3 8.828756391330000e-3
8.978230058819999e-3 9.130215830160001e-3 9.284755924580001e-3 9.441893270889999e-3
9.601671519360000e-3 9.764135053860000e-3 9.929329004200000e-3 1.009729925860000e-2
1.026809247670000e-2 1.044175610200000e-2 1.061833837550000e-2 1.079788834910000e-2
1.098045589880000e-2 1.116609173910000e-2 1.135484743670000e-2 1.154677542490000e-2
1.174192901830000e-2 1.194036242740000e-2 1.214213077400000e-2 1.234729010610000e-2
1.255589741360000e-2 1.276801064460000e-2 1.298368872050000e-2 1.320299155350000e-2
1.342598006230000e-2 1.365271618970000e-2 1.388326291930000e-2 1.411768429340000e-2
1.435604543070000e-2 1.459841254390000e-2 1.484485295890000e-2 1.509543513290000e-2
1.535022867380000e-2 1.560930435910000e-2 1.587273415590000e-2 1.614059124100000e-2
1.641295002070000e-2 1.668988615200000e-2 1.697147656350000e-2 1.725779947640000e-2
1.754893442690000e-2 1.784496228750000e-2 1.814596529010000e-2 1.845202704860000e-2
1.876323258220000e-2 1.907966833870000e-2 1.940142221920000e-2 1.972858360160000e-2
2.006124336640000e-2 2.039949392100000e-2 2.074342922630000e-2 2.109314482190000e-2
2.144873785330000e-2 2.181030709870000e-2 2.217795299640000e-2 2.255177767240000e-2
2.293188496940000e-2 2.331838047530000e-2 2.371137155230000e-2 2.411096736720000e-2
2.451727892140000e-2 2.493041908180000e-2 2.535050261229999e-2 2.577764620530000e-2
2.621196851470000e-2 2.665359018830000e-2 2.710263390170000e-2 2.755922439210000e-2
2.802348849310000e-2 2.849555516990000e-2 2.897555555540000e-2 2.946362298580000e-2
2.995989303880000e-2 3.046450357019999e-2 3.097759475300000e-2 3.149930911560000e-2
3.202979158230001e-2 3.256918951249999e-2 3.311765274250000e-2 3.367533362680000e-2
3.424238708030000e-2 3.481897062150000e-2 3.540524441610000e-2 3.600137132190000e-2
3.660751693340000e-2 3.722384962820000e-2 3.785054061400000e-2 3.848776397560000e-2
3.913569672350000e-2 3.979451884320000e-2 4.046441334510000e-2 4.114556631540000e-2
4.183816696750000e-2 4.254240769500000e-2 4.325848412479999e-2 4.398659517170000e-2
4.472694309340000e-2 4.547973354690000e-2 4.624517564540000e-2 4.702348201680000e-2
4.781486886210001e-2 4.861955601630000e-2 4.943776700860000e-2 5.026972912520000e-2
5.111567347200000e-2 5.197583503900001e-2 5.285045276540000e-2 5.373976960640000e-2
5.464403259990000e-2 5.556349293610000e-2 5.649840602650000e-2 5.744903157520000e-2
5.841563365090000e-2 5.939848076040001e-2 6.039784592320000e-2 6.141400674710001e-2
6.244724550550000e-2 6.349784921590000e-2 6.456610971930000e-2 6.565232376169999e-2
6.675679307609999e-2 6.787982446680001e-2 6.902172989400000e-2 7.018282656109999e-2
7.136343700250000e-2 7.256388917290001e-2 7.378451653910000e-2 7.502565817219999e-2
7.628765884150001e-2 7.757086911110001e-2 7.887564543640000e-2 8.020235026380000e-2
8.155135213070000e-2 8.292302576879999e-2 8.431775220710001e-2 8.573591887890000e-2
8.717791972820001e-2 8.864415532019999e-2 9.013503295200000e-2 9.165096676590000e-2
9.319237786419999e-2 9.475969442680000e-2 9.635335182930000e-2 9.797379276470000e-2
9.962146736580001e-2 1.012968333310000e-1 1.030003560490000e-1 1.047325087340000e-1
1.064937725480000e-1 1.082846367440000e-1 1.101055987960000e-1 1.119571645370000e-1
1.138398483040000e-1 1.157541730770000e-1 1.177006706240000e-1 1.196798816520000e-1
1.216923559540000e-1 1.237386525640000e-1 1.258193399120000e-1 1.279349959780000e-1
1.300862084590000e-1 1.322735749280000e-1 1.344977030000000e-1 1.367592105030000e-1
1.390587256490000e-1 1.413968872060000e-1 1.437743446790000e-1 1.461917584870000e-1
1.486498001510000e-1 1.511491524750000e-1 1.536905097400000e-1 1.562745778940000e-1
1.589020747520000e-1 1.615737301900000e-1 1.642902863520000e-1 1.670524978540000e-1
1.698611319960000e-1 1.727169689710000e-1 1.756208020850000e-1 1.785734379780000e-1
1.815756968460000e-1 1.846284126680000e-1 1.877324334410000e-1 1.908886214120000e-1
1.940978533210000e-1 1.973610206420000e-1 2.006790298310000e-1 2.040528025780000e-1
2.074832760650000e-1 2.109714032230000e-1 2.145181529990000e-1 2.181245106220000e-1
2.217914778840000e-1 2.255200734090000e-1 2.293113329420000e-1 2.331663096350000e-1
2.370860743410000e-1 2.410717159070000e-1 2.451243414820000e-1 2.492450768210000e-1
2.534350666000000e-1 2.576954747310000e-1 2.620274846900000e-1 2.664322998380000e-1
2.709111437660000e-1 2.754652606240000e-1 2.800959154740000e-1 2.848043946400000e-1
2.895920060630000e-1 2.944600796650000e-1 2.994099677200000e-1 3.044430452290000e-1
3.095607103010000e-1 3.147643845440000e-1 3.200555134550000e-1 3.254355668270000e-1
3.309060391530000e-1 3.364684500450000e-1 3.421243446510000e-1 3.478752940910000e-1
3.537228958880000e-1 3.596687744120000e-1 3.657145813350000e-1 3.718619960870000e-1
3.781127263220000e-1 3.844685083940000e-1 3.909311078400000e-1 3.975023198670000e-1
4.041839698550000e-1 4.109779138600000e-1 4.178860391320000e-1 4.249102646410000e-1
4.320525416030000e-1 4.393148540320000e-1 4.466992192840000e-1 4.542076886170000e-1
4.618423477660000e-1 4.696053175200000e-1 4.774987543080000e-1 4.855248508030000e-1
4.936858365270000e-1 5.019839784730000e-1 5.104215817349999e-1 5.190009901440000e-1
5.277245869260000e-1 5.365947953580000e-1 5.456140794430000e-1 5.547849445960001e-1
5.641099383390000e-1 5.735916510070000e-1 5.832327164720001e-1 5.930358128670000e-1
6.030036633400000e-1 6.131390368010000e-1 6.234447486970000e-1 6.339236617920000e-1
6.445786869620001e-1 6.554127840060000e-1 6.664289624639999e-1 6.776302824569999e-1
6.890198555340000e-1 7.006008455400000e-1 7.123764694890000e-1 7.243499984660000e-1
7.365247585260000e-1 7.489041316260000e-1 7.614915565600000e-1 7.742905299169999e-1
7.873046070480000e-1 8.005374030600001e-1 8.139925938130000e-1 8.276739169470000e-1
8.415851729180000e-1 8.557302260529999e-1 8.701130056240000e-1 8.847375069409999e-1
8.996077924580000e-1 9.147279929070001e-1 9.301023084400001e-1 9.457350097990000e-1
9.616304395029999e-1 9.777930130490001e-1 9.942272201460000e-1 1.010937625960000e0
1.027928872370000e0 1.045205679280000e0 1.062772845920000e0 1.080635252170000e0
1.098797859910000e0 1.117265714440000e0 1.136043945840000e0 1.155137770400000e0
1.174552492080000e0 1.194293503990000e0 1.214366289870000e0 1.234776425610000e0
1.255529580850000e0 1.276631520460000e0 1.298088106250000e0 1.319905298500000e0
1.342089157700000e0 1.364645846160000e0 1.387581629780000e0 1.410902879760000e0
1.434616074370000e0 1.458727800770000e0 1.483244756800000e0 1.508173752900000e0
1.533521713940000e0 1.559295681190000e0 1.585502814250000e0 1.612150393040000e0
1.639245819850000e0 1.666796621360000e0 1.694810450730000e0 1.723295089780000e0
1.752258451080000e0 1.781708580200000e0 1.811653657920000e0 1.842102002520000e0
1.873062072050000e0 1.904542466730000e0 1.936551931340000e0 1.969099357570000e0
2.002193786610000e0 2.035844411560000e0 2.070060580020000e0 2.104851796720000e0
2.140227726100000e0 2.176198195040000e0 2.212773195560000e0 2.249962887630000e0
2.287777601940000e0 2.326227842840000e0 2.365324291190000e0 2.405077807370000e0
2.445499434280000e0 2.486600400400000e0 2.528392122940000e0 2.570886210980000e0
2.614094468690000e0 2.658028898670000e0 2.702701705180000e0 2.748125297650000e0
2.794312294010000e0 2.841275524300000e0 2.889028034150000e0 2.937583088460000e0
2.986954175050000e0 3.037155008440000e0 3.088199533610000e0 3.140101929940000e0
3.192876615100000e0 3.246538249040000e0 3.301101738140000e0 3.356582239260000e0
3.412995164010000e0 3.470356183010000e0 3.528681230250000e0 3.587986507510000e0
3.648288488850000e0 3.709603925200000e0 3.771949849040000e0 3.835343579080000e0
3.899802725080000e0 3.965345192790000e0 4.031989188870000e0 4.099753225960000e0
4.168656127850000e0 4.238717034670000e0 4.309955408240000e0 4.382391037450000e0
4.456044043780000e0 4.530934886870000e0 4.607084370210000e0 4.684513646920000e0
4.763244225640000e0 4.843297976480000e0 4.924697137100000e0 5.007464318910000e0
5.091622513320000e0 5.177195098150000e0 5.264205844120000e0 5.352678921420000e0
5.442638906500000e0 5.534110788810000e0 5.627119977790000e0 5.721692309930000e0
5.817854055930000e0 5.915631928000000e0 6.015053087300000e0 6.116145151450000e0
6.218936202220000e0 6.323454793360000e0 6.429729958470000e0 6.537791219120000e0
6.647668593010000e0 6.759392602350000e0 6.872994282310000e0 6.988505189630000e0
7.105957411430000e0 7.225383574060000e0 7.346816852250000e0 7.470290978220000e0
7.595840251160000e0 7.723499546650000e0 7.853304326440000e0 7.985290648240000e0
8.119495175779999e0 8.255955188940000e0 8.394708594170000e0 8.535793934979999e0
8.679250402630000e0 8.825117847070000e0 8.973436787970000e0 9.124248425999999e0
9.277594654250001e0 9.433518069870001e0 9.592061985930000e0 9.753270443420000e0
9.917188223509999e0 1.008386086000000e1 1.025333465180000e1 1.042565667620000e1
1.060087480150000e1 1.077903770040000e1 1.096019486400000e1 1.114439661460000e1
1.133169412070000e1 1.152213941060000e1 1.171578538700000e1 1.191268584160000e1
1.211289547030000e1 1.231646988820000e1 1.252346564500000e1 1.273394024090000e1
1.294795214240000e1 1.316556079860000e1 1.338682665770000e1 1.361181118400000e1
1.384057687460000e1 1.407318727700000e1 1.430970700660000e1 1.455020176500000e1
1.479473835770000e1 1.504338471320000e1 1.529620990150000e1 1.555328415340000e1
1.581467888020000e1 1.608046669300000e1 1.635072142370000e1 1.662551814470000e1
1.690493319010000e1 1.718904417720000e1 1.747793002730000e1 1.777167098850000e1
1.807034865730000e1 1.837404600170000e1 1.868284738400000e1 1.899683858440000e1
1.931610682460000e1 1.964074079230000e1 1.997083066580000e1 2.030646813870000e1
2.064774644590000e1 2.099476038910000e1 2.134760636320000e1 2.170638238340000e1
2.207118811190000e1 2.244212488600000e1 2.281929574610000e1 2.320280546420000e1
2.359276057340000e1 2.398926939700000e1 2.439244207890000e1 2.480239061410000e1
2.521922887980000e1 2.564307266710000e1 2.607403971310000e1 2.651224973370000e1
2.695782445670000e1 2.741088765570000e1 2.787156518440000e1 2.833998501200000e1
2.881627725790000e1 2.930057422870000e1 2.979301045430000e1 3.029372272590000e1
3.080285013330000e1 3.132053410420000e1 3.184691844290001e1 3.238214937070000e1
3.292637556630000e1 3.347974820720000e1 3.404242101150000e1 3.461455028080000e1
3.519629494370001e1 3.578781659950000e1 3.638927956380000e1 3.700085091330000e1
3.762270053300000e1 3.825500116290000e1 3.889792844600001e1 3.955166097750000e1
4.021638035390001e1 4.089227122370001e1 4.157952133880000e1 4.227832160640000e1
4.298886614220001e1 4.371135232410000e1 4.444598084760000e1 4.519295578069999e1
4.595248462140000e1 4.672477835470001e1 4.751005151160000e1 4.830852222860000e1
4.912041230840000e1 4.994594728100001e1 5.078535646710001e1 5.163887304140000e1
5.250673409710000e1 5.338918071260000e1 5.428645801730000e1 5.519881526090000e1
5.612650588180000e1 5.706978757780000e1 5.802892237750001e1 5.900417671360001e1
5.999582149630001e1 6.100413218890001e1 6.202938888400000e1 6.307187638190000e1
6.413188426920001e1 6.520970699919999e1 6.630564397410000e1 6.741999962780000e1
6.855308351090000e1 6.970521037600000e1 7.087670026590001e1 7.206787860200000e1
7.327907627470001e1 7.451062973560001e1 7.576288109090000e1 7.703617819620000e1
7.833087475330000e1 7.964733040850000e1 8.098591085240001e1 8.234698792150001e1
8.373093970150000e1 8.513815063240001e1 8.656901161500000e1 8.802392012010001e1
8.950328029820000e1 9.100750309220000e1 9.253700635150000e1 9.409221494790001e1
9.567356089370000e1 9.728148346200001e1 9.891642930820000e1 1.005788525940000e2
1.022692151160000e2 1.039879864280000e2 1.057356439790000e2 1.075126732400000e2
1.093195678420000e2 1.111568297110000e2 1.130249692110000e2 1.149245052800000e2
1.168559655800000e2 1.188198866390000e2 1.208168140050000e2 1.228473023920000e2
1.249119158380000e2 1.270112278600000e2 1.291458216120000e2 1.313162900530000e2
1.335232361040000e2 1.357672728180000e2 1.380490235560000e2 1.403691221500000e2
1.427282130870000e2 1.451269516870000e2 1.475660042790000e2 1.500460483960000e2
1.525677729530000e2 1.551318784460000e2 1.577390771430000e2 1.603900932830000e2
1.630856632760000e2 1.658265359090000e2 1.686134725530000e2 1.714472473750000e2
1.743286475530000e2 1.772584734940000e2 1.802375390580000e2 1.832666717820000e2
1.863467131120000e2 1.894785186330000e2 1.926629583130000e2 1.959009167390000e2
1.991932933630000e2 2.025410027570000e2 2.059449748600000e2
</PP_R>
<PP_RAB>
1.085573768520000e-6 1.103818279930000e-6 1.122369414630000e-6 1.141232325830000e-6
1.160412253340000e-6 1.179914525060000e-6 1.199744558390000e-6 1.219907861820000e-6
1.240410036390000e-6 1.261256777270000e-6 1.282453875370000e-6 1.304007218910000e-6
1.325922795050000e-6 1.348206691610000e-6 1.370865098700000e-6 1.393904310470000e-6
1.417330726830000e-6 1.441150855300000e-6 1.465371312710000e-6 1.489998827130000e-6
1.515040239690000e-6 1.540502506510000e-6 1.566392700590000e-6 1.592718013830000e-6
1.619485758990000e-6 1.646703371710000e-6 1.674378412620000e-6 1.702518569410000e-6
1.731131658980000e-6 1.760225629580000e-6 1.789808563070000e-6 1.819888677110000e-6
1.850474327480000e-6 1.881574010400000e-6 1.913196364870000e-6 1.945350175070000e-6
1.978044372830000e-6 2.011288040070000e-6 2.045090411380000e-6 2.079460876500000e-6
2.114408983020000e-6 2.149944438960000e-6 2.186077115509999e-6 2.222817049760000e-6
2.260174447490000e-6 2.298159685990000e-6 2.336783316950000e-6 2.376056069410000e-6
2.415988852730000e-6 2.456592759600000e-6 2.497879069140001e-6 2.539859250040000e-6
2.582544963740000e-6 2.625948067630000e-6 2.670080618440001e-6 2.714954875470000e-6
2.760583304090000e-6 2.806978579160000e-6 2.854153588539999e-6 2.902121436730000e-6
2.950895448410000e-6 3.000489172250000e-6 3.050916384600000e-6 3.102191093340000e-6
3.154327541780000e-6 3.207340212590000e-6 3.261243831870000e-6 3.316053373180000e-6
3.371784061739999e-6 3.428451378680000e-6 3.486071065260000e-6 3.544659127330000e-6
3.604231839729999e-6 3.664805750819999e-6 3.726397687070000e-6 3.789024757750000e-6
3.852704359670000e-6 3.917454182020000e-6 3.983292211279999e-6 4.050236736200000e-6
4.118306352930000e-6 4.187519970130000e-6 4.257896814250000e-6 4.329456434860001e-6
4.402218710100001e-6 4.476203852170000e-6 4.551432412990001e-6 4.627925289850000e-6
4.705703731280000e-6 4.784789342880000e-6 4.865204093410000e-6 4.946970320799999e-6
5.030110738419999e-6 5.114648441370000e-6 5.200606912890001e-6 5.288010030870000e-6
5.376882074539999e-6 5.467247731130000e-6 5.559132102800000e-6 5.652560713590001e-6
5.747559516470000e-6 5.844154900610000e-6 5.942373698700001e-6 6.042243194359999e-6
6.143791129760000e-6 6.247045713309999e-6 6.352035627510000e-6 6.458790036890000e-6
6.567338596140003e-6 6.677711458350000e-6 6.789939283340001e-6 6.904053246239999e-6
7.020085046100000e-6 7.138066914730000e-6 7.258031625610001e-6 7.380012503070001e-6
7.504043431450000e-6 7.630158864589999e-6 7.758393835370001e-6 7.888783965429999e-6
8.021365475099998e-6 8.156175193430002e-6 8.293250568409999e-6 8.432629677440001e-6
8.574351237830001e-6 8.718454617579997e-6 8.864979846339999e-6 9.013967626499999e-6
9.165459344529999e-6 9.319497082409999e-6 9.476123629410001e-6 9.635382493909999e-6
9.797317915500001e-6 9.961974877290002e-6 1.012939911840000e-5 1.029963714660000e-5
1.047273625130000e-5 1.064874451680000e-5 1.082771083540000e-5 1.100968492100000e-5
1.119471732320000e-5 1.138285944110000e-5 1.157416353760000e-5 1.176868275400000e-5
1.196647112460000e-5 1.216758359180000e-5 1.237207602170000e-5 1.258000521890000e-5
1.279142894280000e-5 1.300640592380000e-5 1.322499587890000e-5 1.344725952900000e-5
1.367325861540000e-5 1.390305591710000e-5 1.413671526830000e-5 1.437430157560000e-5
1.461588083700000e-5 1.486152015920000e-5 1.511128777710000e-5 1.536525307200000e-5
1.562348659160000e-5 1.588606006900000e-5 1.615304644310000e-5 1.642451987840000e-5
1.670055578590000e-5 1.698123084400000e-5 1.726662302000000e-5 1.755681159110000e-5
1.785187716720000e-5 1.815190171290000e-5 1.845696857020000e-5 1.876716248200000e-5
1.908256961510000e-5 1.940327758460000e-5 1.972937547830000e-5 2.006095388090000e-5
2.039810489970000e-5 2.074092218990000e-5 2.108950098070000e-5 2.144393810190000e-5
2.180433201040000e-5 2.217078281800000e-5 2.254339231900000e-5 2.292226401830000e-5
2.330750316060000e-5 2.369921675920001e-5 2.409751362600000e-5 2.450250440140000e-5
2.491430158570000e-5 2.533301956950000e-5 2.575877466610000e-5 2.619168514340000e-5
2.663187125730000e-5 2.707945528450000e-5 2.753456155670000e-5 2.799731649520000e-5
2.846784864620000e-5 2.894628871590000e-5 2.943276960750000e-5 2.992742645780000e-5
3.043039667440000e-5 3.094181997470000e-5 3.146183842400000e-5 3.199059647510000e-5
3.252824100870000e-5 3.307492137400001e-5 3.363078943010001e-5 3.419599958840000e-5
3.477070885540000e-5 3.535507687610000e-5 3.594926597899999e-5 3.655344122010000e-5
3.716777043000000e-5 3.779242425960000e-5 3.842757622780001e-5 3.907340276980000e-5
3.973008328610001e-5 4.039780019209999e-5 4.107673896900001e-5 4.176708821530001e-5
4.246903969910000e-5 4.318278841150000e-5 4.390853262049999e-5 4.464647392650000e-5
4.539681731790001e-5 4.615977122820000e-5 4.693554759410000e-5 4.772436191380000e-5
4.852643330760000e-5 4.934198457820001e-5 5.017124227289999e-5 5.101443674650000e-5
5.187180222489999e-5 5.274357687080001e-5 5.363000284949999e-5 5.453132639600000e-5
5.544779788380000e-5 5.637967189420000e-5 5.732720728710000e-5 5.829066727290000e-5
5.927031948560001e-5 6.026643605690001e-5 6.127929369250001e-5 6.230917374809999e-5
6.335636230820000e-5 6.442115026530000e-5 6.550383340050001e-5 6.660471246620001e-5
6.772409326919999e-5 6.886228675580002e-5 7.001960909810000e-5 7.119638178219999e-5
7.239293169670001e-5 7.360959122440001e-5 7.484669833410001e-5 7.610459667469999e-5
7.738363567030000e-5 7.868417061780000e-5 8.000656278539998e-5 8.135117951269999e-5
8.271839431290001e-5 8.410858697669999e-5 8.552214367780000e-5 8.695945707969999e-5
8.842092644560001e-5 8.990695774850000e-5 9.141796378450000e-5 9.295436428710001e-5
9.451658604409998e-5 9.610506301619999e-5 9.772023645699999e-5 9.936255503630001e-5
1.010324749640000e-4 1.027304601180000e-4 1.044569821720000e-4 1.062125207250000e-4
1.079975634400000e-4 1.098126061720000e-4 1.116581531120000e-4 1.135347169230000e-4
1.154428188860000e-4 1.173829890410000e-4 1.193557663370000e-4 1.213616987790000e-4
1.234013435850000e-4 1.254752673360000e-4 1.275840461340000e-4 1.297282657650000e-4
1.319085218600000e-4 1.341254200590000e-4 1.363795761820000e-4 1.386716163970000e-4
1.410021773970000e-4 1.433719065760000e-4 1.457814622060000e-4 1.482315136240000e-4
1.507227414160000e-4 1.532558376050000e-4 1.558315058450000e-4 1.584504616170000e-4
1.611134324250000e-4 1.638211580000000e-4 1.665743905050000e-4 1.693738947460000e-4
1.722204483800000e-4 1.751148421340000e-4 1.780578800270000e-4 1.810503795870000e-4
1.840931720820000e-4 1.871871027540000e-4 1.903330310470000e-4 1.935318308500000e-4
1.967843907400000e-4 2.000916142260000e-4 2.034544200020000e-4 2.068737422030000e-4
2.103505306630000e-4 2.138857511780000e-4 2.174803857770000e-4 2.211354329930000e-4
2.248519081400000e-4 2.286308435960000e-4 2.324732890900000e-4 2.363803119930000e-4
2.403529976130001e-4 2.443924495000000e-4 2.484997897500000e-4 2.526761593180000e-4
2.569227183320000e-4 2.612406464200000e-4 2.656311430340001e-4 2.700954277850000e-4
2.746347407800000e-4 2.792503429690000e-4 2.839435164930000e-4 2.887155650420000e-4
2.935678142160000e-4 2.985016118930000e-4 3.035183286030001e-4 3.086193579120000e-4
3.138061168039999e-4 3.190800460810000e-4 3.244426107550000e-4 3.298953004630000e-4
3.354396298750000e-4 3.410771391190001e-4 3.468093942069999e-4 3.526379874670000e-4
3.585645379910001e-4 3.645906920810000e-4 3.707181237079999e-4 3.769485349750000e-4
3.832836565920000e-4 3.897252483570000e-4 3.962750996410000e-4 4.029350298890001e-4
4.097068891250000e-4 4.165925584660001e-4 4.235939506399999e-4 4.307130105240001e-4
4.379517156800000e-4 4.453120769070001e-4 4.527961387970000e-4 4.604059803030000e-4
4.681437153199999e-4 4.760114932680000e-4 4.840114996910000e-4 4.921459568660000e-4
5.004171244149999e-4 5.088272999389999e-4 5.173788196510001e-4 5.260740590290000e-4
5.349154334730000e-4 5.439053989770000e-4 5.530464528110000e-4 5.623411342149999e-4
5.717920251070000e-4 5.814017507930000e-4 5.911729807040000e-4 6.011084291330000e-4
6.112108559910000e-4 6.214830675730000e-4 6.319279173360002e-4 6.425483066949999e-4
6.533471858260000e-4 6.643275544880001e-4 6.754924628540000e-4 6.868450123580000e-4
6.983883565600001e-4 7.101257020179998e-4 7.220603091820000e-4 7.341954932970001e-4
7.465346253250001e-4 7.590811328829999e-4 7.718385011919999e-4 7.848102740480001e-4
7.980000548040000e-4 8.114115073740001e-4 8.250483572460000e-4 8.389143925219999e-4
8.530134649690000e-4 8.673494910850000e-4 8.819264531929999e-4 8.967484005410000e-4
9.118194504340000e-4 9.271437893710001e-4 9.427256742099999e-4 9.585694333550000e-4
9.746794679500002e-4 9.910602531089998e-4 1.007716339160000e-3 1.024652352890000e-3
1.041872998860000e-3 1.059383060700000e-3 1.077187402420000e-3 1.095290969800000e-3
1.113698791700000e-3 1.132415981550000e-3 1.151447738670000e-3 1.170799349790000e-3
1.190476190480000e-3 1.210483726650000e-3 1.230827516090000e-3 1.251513209970000e-3
1.272546554460000e-3 1.293933392290000e-3 1.315679664380000e-3 1.337791411500000e-3
1.360274775950000e-3 1.383136003250000e-3 1.406381443890000e-3 1.430017555080000e-3
1.454050902570000e-3 1.478488162440000e-3 1.503336122970000e-3 1.528601686530000e-3
1.554291871510000e-3 1.580413814220000e-3 1.606974770920000e-3 1.633982119850000e-3
1.661443363200000e-3 1.689366129280000e-3 1.717758174590000e-3 1.746627386000000e-3
1.775981782910000e-3 1.805829519510000e-3 1.836178887040000e-3 1.867038316059999e-3
1.898416378840000e-3 1.930321791720000e-3 1.962763417500000e-3 1.995750267960000e-3
2.029291506340000e-3 2.063396449840000e-3 2.098074572300000e-3 2.133335506730000e-3
2.169189048080000e-3 2.205645155900000e-3 2.242713957100000e-3 2.280405748830000e-3
2.318731001260000e-3 2.357700360540000e-3 2.397324651750000e-3 2.437614881890000e-3
2.478582242950000e-3 2.520238115020001e-3 2.562594069430000e-3 2.605661872000000e-3
2.649453486300000e-3 2.693981076930000e-3 2.739257012970000e-3 2.785293871340000e-3
2.832104440370000e-3 2.879701723280000e-3 2.928098941850000e-3 2.977309540070000e-3
3.027347187870000e-3 3.078225784900000e-3 3.129959464440001e-3 3.182562597300000e-3
3.236049795780000e-3 3.290435917800000e-3 3.345736070950000e-3 3.401965616740000e-3
3.459140174860000e-3 3.517275627490000e-3 3.576388123750001e-3 3.636494084140001e-3
3.697610205170000e-3 3.759753463920000e-3 3.822941122800000e-3 3.887190734360000e-3
3.952520146110000e-3 4.018947505550000e-3 4.086491265129999e-3 4.155170187450000e-3
4.225003350440000e-3 4.296010152630000e-3 4.368210318589999e-3 4.441623904410000e-3
4.516271303190000e-3 4.592173250830000e-3 4.669350831670000e-3 4.747825484440000e-3
4.827619008150000e-3 4.908753568179999e-3 4.991251702430000e-3 5.075136327580000e-3
5.160430745459999e-3 5.247158649500000e-3 5.335344131349999e-3 5.425011687550000e-3
5.516186226320000e-3 5.608893074510000e-3 5.703157984620000e-3 5.799007141960001e-3
5.896467171900000e-3 5.995565147299999e-3 6.096328596019999e-3 6.198785508549999e-3
6.302964345800000e-3 6.408894047010000e-3 6.516604037770001e-3 6.626124238230000e-3
6.737485071350000e-3 6.850717471439999e-3 6.965852892640000e-3 7.082923317780000e-3
7.201961267160000e-3 7.322999807640000e-3 7.446072561829999e-3 7.571213717380000e-3
7.698458036540000e-3 7.827840865770000e-3 7.959398145570001e-3 8.093166420479999e-3
8.229182849210002e-3 8.367485214990001e-3 8.508111936010000e-3 8.651102076170002e-3
8.796495355870000e-3 8.944332163060000e-3 9.094653564480000e-3 9.247501317029998e-3
9.402917879409999e-3 9.560946423890000e-3 9.721630848289999e-3 9.885015788219999e-3
1.005114662940000e-2 1.022006952040000e-2 1.039183138540000e-2 1.056647993700000e-2
1.074406368980000e-2 1.092463197390000e-2 1.110823494820000e-2 1.129492361470000e-2
1.148474983270000e-2 1.167776633280000e-2 1.187402673190000e-2 1.207358554820000e-2
1.227649821590000e-2 1.248282110090000e-2 1.269261151640000e-2 1.290592773900000e-2
1.312282902460000e-2 1.334337562480000e-2 1.356762880400000e-2 1.379565085620000e-2
1.402750512240000e-2 1.426325600800000e-2 1.450296900080000e-2 1.474671068940000e-2
1.499454878140000e-2 1.524655212220000e-2 1.550279071440000e-2 1.576333573710000e-2
1.602825956550000e-2 1.629763579130000e-2 1.657153924290000e-2 1.685004600640000e-2
1.713323344660000e-2 1.742118022850000e-2 1.771396633910000e-2 1.801167310990000e-2
1.831438323900000e-2 1.862218081450000e-2 1.893515133780000e-2 1.925338174710000e-2
1.957696044180000e-2 1.990597730690000e-2 2.024052373820000e-2 2.058069266730000e-2
2.092657858790000e-2 2.127827758150000e-2 2.163588734460000e-2 2.199950721550000e-2
2.236923820210000e-2 2.274518300980000e-2 2.312744607020000e-2 2.351613356980000e-2
2.391135348000000e-2 2.431321558660000e-2 2.472183152050000e-2 2.513731478870000e-2
2.555978080610000e-2 2.598934692690000e-2 2.642613247790000e-2 2.687025879120000e-2
2.732184923800000e-2 2.778102926300000e-2 2.824792641930000e-2 2.872267040340000e-2
2.920539309180000e-2 2.969622857720000e-2 3.019531320590000e-2 3.070278561570000e-2
3.121878677450000e-2 3.174346001930000e-2 3.227695109600000e-2 3.281940820000000e-2
3.337098201730000e-2 3.393182576640000e-2 3.450209524080000e-2 3.508194885250000e-2
3.567154767550000e-2 3.627105549109999e-2 3.688063883310000e-2 3.750046703420000e-2
3.813071227280000e-2 3.877154962120000e-2 3.942315709370000e-2 4.008571569670000e-2
4.075940947839999e-2 4.144442558050000e-2 4.214095428949999e-2 4.284918909000001e-2
4.356932671870000e-2 4.430156721820000e-2 4.504611399350001e-2 4.580317386790000e-2
4.657295714070000e-2 4.735567764540000e-2 4.815155280959999e-2 4.896080371469999e-2
4.978365515790000e-2 5.062033571440000e-2 5.147107780060000e-2 5.233611773950000e-2
5.321569582540000e-2 5.411005639110000e-2 5.501944787610000e-2 5.594412289470000e-2
5.688433830730000e-2 5.784035529070000e-2 5.881243941130000e-2 5.980086069890000e-2
6.080589372120000e-2 6.182781766050001e-2 6.286691639120000e-2 6.392347855839999e-2
6.499779765850001e-2 6.609017212029999e-2 6.720090538829999e-2 6.833030600650001e-2
6.947868770460000e-2 7.064636948500000e-2 7.183367571110000e-2 7.304093619800001e-2
7.426848630350000e-2 7.551666702159999e-2 7.678582507720000e-2 7.807631302240001e-2
7.938848933440000e-2 8.072271851509999e-2 8.207937119210001e-2 8.345882422219999e-2
8.486146079579999e-2 8.628767054300001e-2 8.773784964240001e-2 8.921240093080002e-2
9.071173401540001e-2 9.223626538720000e-2 9.378641853689999e-2 9.536262407260001e-2
9.696531983920000e-2 9.859495104050000e-2 1.002519703620000e-1 1.019368380980000e-1
1.036500222770000e-1 1.053919987960000e-1 1.071632515480000e-1 1.089642725590000e-1
1.107955621240000e-1 1.126576289460000e-1 1.145509902790000e-1 1.164761720680000e-1
1.184337090980000e-1 1.204241451420000e-1 1.224480331110000e-1 1.245059352110000e-1
1.265984230930000e-1 1.287260780180000e-1 1.308894910140000e-1 1.330892630450000e-1
1.353260051700000e-1 1.376003387230000e-1 1.399128954770000e-1 1.422643178230000e-1
1.446552589510000e-1 1.470863830250000e-1 1.495583653730000e-1 1.520718926740000e-1
1.546276631450000e-1 1.572263867380000e-1 1.598687853390000e-1 1.625555929640000e-1
1.652875559660000e-1 1.680654332400000e-1 1.708899964370000e-1 1.737620301770000e-1
1.766823322650000e-1 1.796517139140000e-1 1.826709999730000e-1 1.857410291500000e-1
1.888626542530000e-1 1.920367424180000e-1 1.952641753570000e-1 1.985458496010000e-1
2.018826767460000e-1 2.052755837110000e-1 2.087255129910000e-1 2.122334229220000e-1
2.158002879470000e-1 2.194270988830000e-1 2.231148632030000e-1 2.268646053080000e-1
2.306773668180000e-1 2.345542068570000e-1 2.384962023510000e-1 2.425044483240000e-1
2.465800582020000e-1 2.507241641270000e-1 2.549379172650000e-1 2.592224881310000e-1
2.635790669100000e-1 2.680088637910000e-1 2.725131093020000e-1 2.770930546520000e-1
2.817499720760000e-1 2.864851551930000e-1 2.912999193620000e-1 2.961956020480000e-1
3.011735631950000e-1 3.062351856020000e-1 3.113818753070000e-1 3.166150619800000e-1
3.219361993170000e-1 3.273467654460000e-1 3.328482633370000e-1 3.384422212190000e-1
3.441301930050000e-1 3.499137587250000e-1 3.557945249610000e-1 3.617741252970000e-1
3.678542207720000e-1 3.740365003400000e-1 3.803226813410000e-1 3.867145099770000e-1
3.932137617970000e-1 3.998222421900000e-1 4.065417868880000e-1 4.133742624750000e-1
4.203215669030000e-1 4.273856300250000e-1 4.345684141250000e-1 4.418719144690000e-1
4.492981598520000e-1 4.568492131679999e-1 4.645271719810000e-1 4.723341691070000e-1
4.802723732060000e-1 4.883439893850000e-1 4.965512598130000e-1 5.048964643390001e-1
5.133819211300001e-1 5.220099873100001e-1 5.307830596220001e-1 5.397035750850000e-1
5.487740116790000e-1 5.579968890269999e-1 5.673747690980000e-1 5.769102569199999e-1
5.866060013010000e-1 5.964646955660000e-1 6.064890783030000e-1 6.166819341289999e-1
6.270460944570000e-1 6.375844382880000e-1 6.482998930070000e-1 6.591954351979999e-1
6.702740914710001e-1 6.815389393020000e-1 6.929931078870000e-1 7.046397790140000e-1
7.164821879430000e-1 7.285236243090000e-1 7.407674330339999e-1 7.532170152530000e-1
7.658758292640000e-1 7.787473914850001e-1 7.918352774340000e-1 8.051431227180000e-1
8.186746240460000e-1 8.324335402570000e-1 8.464236933590000e-1 8.606489695970000e-1
8.751133205260000e-1 8.898207641159999e-1 9.047753858629999e-1 9.199813399230001e-1
9.354428502710000e-1 9.511642118699999e-1 9.671497918660000e-1 9.834040308010000e-1
9.999314438459999e-1 1.016736622050000e0 1.033824233640000e0 1.051199025270000e0
1.068865823390000e0 1.086829535560000e0 1.105095151810000e0 1.123667746040000e0
1.142552477420000e0 1.161754591840000e0 1.181279423340000e0 1.201132395610000e0
1.221319023480000e0 1.241844914500000e0 1.262715770420000e0 1.283937388840000e0
1.305515664800000e0 1.327456592380000e0 1.349766266450000e0 1.372450884270000e0
1.395516747270000e0 1.418970262780000e0 1.442817945820000e0 1.467066420910000e0
1.491722423880000e0 1.516792803780000e0 1.542284524770000e0 1.568204668040000e0
1.594560433800000e0 1.621359143270000e0 1.648608240710000e0 1.676315295480000e0
1.704488004170000e0 1.733134192710000e0 1.762261818550000e0 1.791878972900000e0
1.821993882930000e0 1.852614914090000e0 1.883750572420000e0 1.915409506900000e0
1.947600511900000e0 1.980332529560000e0 2.013614652330000e0 2.047456125450000e0
2.081866349540000e0 2.116854883230000e0 2.152431445780000e0 2.188605919790000e0
2.225388353970000e0 2.262788965880000e0 2.300818144840000e0 2.339486454740000e0
2.378804637030000e0 2.418783613680000e0 2.459434490230000e0 2.500768558830000e0
2.542797301450000e0 2.585532393010000e0 2.628985704630000e0 2.673169306960000e0
2.718095473510000e0 2.763776684060000e0 2.810225628130000e0 2.857455208490000e0
2.905478544790000e0 2.954308977150000e0 3.003960069880000e0 3.054445615280000e0
3.105779637440000e0 3.157976396130000e0 3.211050390800000e0 3.265016364550000e0
3.319889308290000e0 3.375684464850000e0 3.432417333250000e0
</PP_RAB>
</PP_MESH>
<PP_NLCC columns="4">
0.000000000000000e0 6.820050827289999e-1 6.820050827250000e-1 6.820050827179999e-1
6.820050827079999e-1 6.820050826960000e-1 6.820050826800000e-1 6.820050826610000e-1
6.820050826379999e-1 6.820050826110000e-1 6.820050825810000e-1 6.820050825460000e-1
6.820050825079999e-1 6.820050824650000e-1 6.820050824170000e-1 6.820050823640001e-1
6.820050823060000e-1 6.820050822430001e-1 6.820050821750000e-1 6.820050821000000e-1
6.820050820200000e-1 6.820050819330000e-1 6.820050818399999e-1 6.820050817399999e-1
6.820050816330000e-1 6.820050815180000e-1 6.820050813950001e-1 6.820050812650001e-1
6.820050811260000e-1 6.820050809780000e-1 6.820050808210000e-1 6.820050806540000e-1
6.820050804780000e-1 6.820050802910000e-1 6.820050800930000e-1 6.820050798840001e-1
6.820050796640000e-1 6.820050794309999e-1 6.820050791860000e-1 6.820050789270001e-1
6.820050786550000e-1 6.820050783690000e-1 6.820050780680001e-1 6.820050777510001e-1
6.820050774189999e-1 6.820050770700000e-1 6.820050767030001e-1 6.820050763190000e-1
6.820050759160000e-1 6.820050754940000e-1 6.820050750520000e-1 6.820050745880000e-1
6.820050741030000e-1 6.820050735960001e-1 6.820050730650000e-1 6.820050725100000e-1
6.820050719289999e-1 6.820050713230001e-1 6.820050706889999e-1 6.820050700269999e-1
6.820050693360001e-1 6.820050686140000e-1 6.820050678610000e-1 6.820050670750000e-1
6.820050662550000e-1 6.820050653990000e-1 6.820050645080000e-1 6.820050635779999e-1
6.820050626090000e-1 6.820050615990000e-1 6.820050605470001e-1 6.820050594510000e-1
6.820050583090000e-1 6.820050571210000e-1 6.820050558829999e-1 6.820050545950000e-1
6.820050532530000e-1 6.820050518580000e-1 6.820050504060000e-1 6.820050488950001e-1
6.820050473230000e-1 6.820050456890000e-1 6.820050439890000e-1 6.820050422210000e-1
6.820050403840000e-1 6.820050384730000e-1 6.820050364880000e-1 6.820050344239999e-1
6.820050322800000e-1 6.820050300510000e-1 6.820050277360000e-1 6.820050253310001e-1
6.820050228320000e-1 6.820050202380000e-1 6.820050175430000e-1 6.820050147440000e-1
6.820050118380000e-1 6.820050088210000e-1 6.820050056890000e-1 6.820050024370000e-1
6.820049990619999e-1 6.820049955589999e-1 6.820049919230000e-1 6.820049881500000e-1
6.820049842350000e-1 6.820049801730001e-1 6.820049759590000e-1 6.820049715860001e-1
6.820049670500000e-1 6.820049623450000e-1 6.820049574640001e-1 6.820049524020000e-1
6.820049471530000e-1 6.820049417080000e-1 6.820049360630000e-1 6.820049302080000e-1
6.820049241380000e-1 6.820049178450000e-1 6.820049113200000e-1 6.820049045560000e-1
6.820048975430000e-1 6.820048902750000e-1 6.820048827400001e-1 6.820048749310001e-1
6.820048668370000e-1 6.820048584479999e-1 6.820048497540000e-1 6.820048407450000e-1
6.820048314100000e-1 6.820048217360000e-1 6.820048117120000e-1 6.820048013260001e-1
6.820047905650000e-1 6.820047794170000e-1 6.820047678670001e-1 6.820047559020001e-1
6.820047435060000e-1 6.820047306659999e-1 6.820047173660000e-1 6.820047035890000e-1
6.820046893190001e-1 6.820046745390000e-1 6.820046592320001e-1 6.820046433780000e-1
6.820046269590000e-1 6.820046099550000e-1 6.820045923459999e-1 6.820045741110000e-1
6.820045552290001e-1 6.820045356760000e-1 6.820045154290000e-1 6.820044944650000e-1
6.820044727590000e-1 6.820044502850000e-1 6.820044270159999e-1 6.820044029250000e-1
6.820043779840001e-1 6.820043521630001e-1 6.820043254310000e-1 6.820042977580000e-1
6.820042691100000e-1 6.820042394550000e-1 6.820042087570000e-1 6.820041769800000e-1
6.820041440870001e-1 6.820041100399999e-1 6.820040747990000e-1 6.820040383230000e-1
6.820040005690000e-1 6.820039614930000e-1 6.820039210499999e-1 6.820038791920000e-1
6.820038358710000e-1 6.820037910370001e-1 6.820037446370000e-1 6.820036966189999e-1
6.820036469250001e-1 6.820035954980001e-1 6.820035422800000e-1 6.820034872080000e-1
6.820034302180000e-1 6.820033712460000e-1 6.820033102220000e-1 6.820032470770000e-1
6.820031817370000e-1 6.820031141270000e-1 6.820030441700000e-1 6.820029717850000e-1
6.820028968880000e-1 6.820028193940000e-1 6.820027392140000e-1 6.820026562550000e-1
6.820025704220000e-1 6.820024816180000e-1 6.820023897390000e-1 6.820022946810001e-1
6.820021963350000e-1 6.820020945880000e-1 6.820019893240000e-1 6.820018804230000e-1
6.820017677600000e-1 6.820016512060000e-1 6.820015306290000e-1 6.820014058900000e-1
6.820012768480001e-1 6.820011433560000e-1 6.820010052600000e-1 6.820008624050001e-1
6.820007146260000e-1 6.820005617570000e-1 6.820004036229999e-1 6.820002400430000e-1
6.820000708329999e-1 6.819998957999999e-1 6.819997147450000e-1 6.819995274629999e-1
6.819993337400000e-1 6.819991333570000e-1 6.819989260870000e-1 6.819987116950000e-1
6.819984899370000e-1 6.819982605629999e-1 6.819980233120000e-1 6.819977779150000e-1
6.819975240960000e-1 6.819972615660000e-1 6.819969900290000e-1 6.819967091780001e-1
6.819964186940000e-1 6.819961182510000e-1 6.819958075070000e-1 6.819954861120000e-1
6.819951537030001e-1 6.819948099050000e-1 6.819944543289999e-1 6.819940865750000e-1
6.819937062269999e-1 6.819933128560000e-1 6.819929060190000e-1 6.819924852580001e-1
6.819920500970000e-1 6.819916000470000e-1 6.819911346000000e-1 6.819906532320000e-1
6.819901554020000e-1 6.819896405480001e-1 6.819891080920000e-1 6.819885574340000e-1
6.819879879539999e-1 6.819873990120000e-1 6.819867899460000e-1 6.819861600710000e-1
6.819855086790000e-1 6.819848350370000e-1 6.819841383889999e-1 6.819834179520000e-1
6.819826729170000e-1 6.819819024470000e-1 6.819811056760000e-1 6.819802817110000e-1
6.819794296270000e-1 6.819785484670000e-1 6.819776372420000e-1 6.819766949310000e-1
6.819757204750000e-1 6.819747127830000e-1 6.819736707240000e-1 6.819725931310000e-1
6.819714787940000e-1 6.819703264650000e-1 6.819691348530000e-1 6.819679026230000e-1
6.819666283930000e-1 6.819653107370000e-1 6.819639481779999e-1 6.819625391920000e-1
6.819610822000000e-1 6.819595755709999e-1 6.819580176180001e-1 6.819564065980001e-1
6.819547407080000e-1 6.819530180840000e-1 6.819512367980000e-1 6.819493948580000e-1
6.819474902040001e-1 6.819455207050000e-1 6.819434841580000e-1 6.819413782870000e-1
6.819392007370000e-1 6.819369490740001e-1 6.819346207810000e-1 6.819322132560000e-1
6.819297238080000e-1 6.819271496550000e-1 6.819244879220000e-1 6.819217356350000e-1
6.819188897200000e-1 6.819159469970000e-1 6.819129041799999e-1 6.819097578720000e-1
6.819065045590000e-1 6.819031406080000e-1 6.818996622659999e-1 6.818960656470000e-1
6.818923467390000e-1 6.818885013910000e-1 6.818845253110000e-1 6.818804140630000e-1
6.818761630600000e-1 6.818717675590000e-1 6.818672226559999e-1 6.818625232830000e-1
6.818576641980000e-1 6.818526399810000e-1 6.818474450300000e-1 6.818420735529999e-1
6.818365195610000e-1 6.818307768610000e-1 6.818248390530000e-1 6.818186995170000e-1
6.818123514110001e-1 6.818057876600000e-1 6.817990009490000e-1 6.817919837170000e-1
6.817847281450000e-1 6.817772261500000e-1 6.817694693740000e-1 6.817614491780000e-1
6.817531566290000e-1 6.817445824910000e-1 6.817357172170000e-1 6.817265509340000e-1
6.817170734380000e-1 6.817072741770001e-1 6.816971422410000e-1 6.816866663540000e-1
6.816758348550001e-1 6.816646356900000e-1 6.816530563970000e-1 6.816410840910000e-1
6.816287054509999e-1 6.816159067060000e-1 6.816026736190000e-1 6.815889914700000e-1
6.815748450440000e-1 6.815602186060000e-1 6.815450958940001e-1 6.815294600920000e-1
6.815132938180000e-1 6.814965791010001e-1 6.814792973600000e-1 6.814614293900000e-1
6.814429553340000e-1 6.814238546630000e-1 6.814041061570000e-1 6.813836878750000e-1
6.813625771360000e-1 6.813407504950000e-1 6.813181837100000e-1 6.812948517250001e-1
6.812707286329999e-1 6.812457876550000e-1 6.812200011070000e-1 6.811933403690000e-1
6.811657758560000e-1 6.811372769839999e-1 6.811078121370000e-1 6.810773486290000e-1
6.810458526770001e-1 6.810132893530000e-1 6.809796225530000e-1 6.809448149550001e-1
6.809088279799999e-1 6.808716217460001e-1 6.808331550290000e-1 6.807933852150000e-1
6.807522682529999e-1 6.807097586100000e-1 6.806658092190000e-1 6.806203714290000e-1
6.805733949510000e-1 6.805248278020000e-1 6.804746162520000e-1 6.804227047650000e-1
6.803690359350000e-1 6.803135504280000e-1 6.802561869160000e-1 6.801968820090000e-1
6.801355701900000e-1 6.800721837419999e-1 6.800066526760000e-1 6.799389046520000e-1
6.798688649070001e-1 6.797964561700000e-1 6.797215985819999e-1 6.796442096050001e-1
6.795642039420001e-1 6.794814934390000e-1 6.793959869910000e-1 6.793075904480000e-1
6.792162065129999e-1 6.791217346390001e-1 6.790240709199999e-1 6.789231079830000e-1
6.788187348730000e-1 6.787108369369999e-1 6.785992957009999e-1 6.784839887450000e-1
6.783647895780000e-1 6.782415674990000e-1 6.781141874649999e-1 6.779825099480000e-1
6.778463907880000e-1 6.777056810470000e-1 6.775602268470000e-1 6.774098692190000e-1
6.772544439320000e-1 6.770937813260000e-1 6.769277061380000e-1 6.767560373209999e-1
6.765785878600000e-1 6.763951645800001e-1 6.762055679510000e-1 6.760095918830000e-1
6.758070235200000e-1 6.755976430260000e-1 6.753812233630000e-1 6.751575300650000e-1
6.749263210030000e-1 6.746873461460000e-1 6.744403473160000e-1 6.741850579289999e-1
6.739212027380001e-1 6.736484975640000e-1 6.733666490180000e-1 6.730753542230000e-1
6.727743005150000e-1 6.724631651539999e-1 6.721416150100000e-1 6.718093062510000e-1
6.714658840210000e-1 6.711109821100000e-1 6.707442226120000e-1 6.703652155780000e-1
6.699735586630000e-1 6.695688367560000e-1 6.691506216120001e-1 6.687184714670000e-1
6.682719306479999e-1 6.678105291710001e-1 6.673337823370000e-1 6.668411903140000e-1
6.663322377089999e-1 6.658063931350000e-1 6.652631087690000e-1 6.647018199020000e-1
6.641219444760001e-1 6.635228826180000e-1 6.629040161670000e-1 6.622647081880000e-1
6.616043024840001e-1 6.609221230950000e-1 6.602174737990000e-1 6.594896375979999e-1
6.587378762020000e-1 6.579614295130000e-1 6.571595150929999e-1 6.563313276360000e-1
6.554760384400000e-1 6.545927948659999e-1 6.536807198030000e-1 6.527389111360000e-1
6.517664412029999e-1 6.507623562630000e-1 6.497256759680000e-1 6.486553928320000e-1
6.475504717130000e-1 6.464098492980001e-1 6.452324336039999e-1 6.440171034820001e-1
6.427627081390001e-1 6.414680666800000e-1 6.401319676590001e-1 6.387531686600000e-1
6.373303958939999e-1 6.358623438320000e-1 6.343476748560000e-1 6.327850189549999e-1
6.311729734510000e-1 6.295101027690000e-1 6.277949382519999e-1 6.260259780260000e-1
6.242016869170000e-1 6.223204964340000e-1 6.203808048070000e-1 6.183809771110001e-1
6.163193454490000e-1 6.141942092330001e-1 6.120038355460000e-1 6.097464596080000e-1
6.074202853410000e-1 6.050234860540000e-1 6.025542052390001e-1 6.000105575090000e-1
5.973906296650000e-1 5.946924819219999e-1 5.919141492850000e-1 5.890536431009999e-1
5.861089527920001e-1 5.830780477779999e-1 5.799588796060000e-1 5.767493842990000e-1
5.734474849320001e-1 5.700510944520000e-1 5.665581187630000e-1 5.629664600710001e-1
5.592740205300000e-1 5.554787061799999e-1 5.515784312090000e-1 5.475711225470000e-1
5.434547248119999e-1 5.392272056219999e-1 5.348865612910000e-1 5.304308229250000e-1
5.258580629390000e-1 5.211664020070001e-1 5.163540164600001e-1 5.114191461590000e-1
5.063601028480001e-1 5.011752790110000e-1 4.958631572420000e-1 4.904223201490000e-1
4.848514608010000e-1 4.791493937279999e-1 4.733150665010000e-1 4.673475718750000e-1
4.612461605290000e-1 4.550102543940000e-1 4.486394605720000e-1 4.421335858560000e-1
4.354926518350000e-1 4.287169105890000e-1 4.218068609530000e-1 4.147632653440000e-1
4.075871671150000e-1 4.002799084250000e-1 3.928431485780000e-1 3.852788827890000e-1
3.775894613330000e-1 3.697776090030000e-1 3.618464448110000e-1 3.537995018450000e-1
3.456407471720000e-1 3.373746016790000e-1 3.290059597080000e-1 3.205402083320000e-1
3.119832460840000e-1 3.033415009380000e-1 2.946219473030000e-1 2.858321217620000e-1
2.769801372430000e-1 2.680746952890000e-1 2.591250960330000e-1 2.501412454390000e-1
2.411336593220000e-1 2.321134636210000e-1 2.230923903010000e-1 2.140827682540000e-1
2.050975084620000e-1 1.961500826630000e-1 1.872544946840000e-1 1.784252435750000e-1
1.696772776310000e-1 1.610259383910000e-1 1.524868936980000e-1 1.440760589610000e-1
1.358095058490000e-1 1.277033577910000e-1 1.197736719040000e-1 1.120363072520000e-1
1.045067798070000e-1 9.720010500830000e-2 9.013062953399999e-2 8.331185476860000e-2
7.675625548110000e-2 7.047509843880000e-2 6.447826702730000e-2 5.877409937510000e-2
5.336924888579999e-2 4.826857727710000e-2 4.347509093009999e-2 3.898993111960000e-2
3.481242688020000e-2 3.094021490810000e-2 2.736942264670000e-2 2.409489662160000e-2
2.111043548480000e-2 1.840895234410000e-2 1.598243864160000e-2 1.382152503330000e-2
1.191432381680000e-2 1.024393425610000e-2 8.787461598410001e-3 7.520415175480000e-3
6.420742001630000e-3 5.468610756850000e-3 4.646228521580000e-3 3.937668919570001e-3
3.328711160050000e-3 2.806689416190000e-3 2.360352055450000e-3 1.979730260940000e-3
1.656015703490000e-3 1.381446895840000e-3 1.149203947180000e-3 9.533113682630001e-4
7.885486356530000e-4 6.503681469380000e-4 5.348202419910000e-4 4.384848994630000e-4
3.584097541970000e-4 2.920540332890000e-4 2.372380419370000e-4 1.920978004610000e-4
1.550444652820000e-4 1.247281524100000e-4 1.000058115370000e-4 7.991279658050000e-5
6.363780619489999e-5 5.050087402669999e-5 3.993411429910000e-5 3.146494006770000e-5
2.470149540250000e-5 1.932005758860000e-5 1.505418735770000e-5 1.168542123580000e-5
9.035319885659998e-6 6.958702291050001e-6 5.337913178870001e-6 4.077986020890000e-6
3.102579203580000e-6 2.350576314640000e-6 1.773254452020000e-6 1.331935960240000e-6
9.960497587800001e-7 7.415380028840000e-7 5.495525427570001e-7 4.053933868570000e-7
2.976482828800000e-7 2.174986143210000e-7 1.581621490040000e-7 1.144478340220000e-7
8.240185877310001e-8 5.902768379219998e-8 4.206569855840000e-8 2.982070123510001e-8
2.102752459180000e-8 1.474692846150000e-8 1.028537396660000e-8 7.133538833360003e-9
4.919456188970001e-9 3.372999861550000e-9 2.299122204930000e-9 1.557804440170000e-9
1.049124131560000e-9 7.022003277940002e-10 4.670590160240000e-10 3.086843664749999e-10
2.026956252100000e-10 1.322253859840000e-10 8.567991136180000e-11 5.514281414769999e-11
3.524485326849999e-11 2.236915079820000e-11 1.409611552460000e-11 8.818479468130000e-12
5.476200941430003e-12 3.375223265060000e-12 2.064467631850000e-12 1.252968016860001e-12
7.544683354960001e-13 4.506639854850000e-13 2.670029421050000e-13 1.568808834490000e-13
9.140144958310001e-14 5.279616485900000e-14 3.023109823780000e-14 1.715704991090000e-14
9.649441976920002e-15 5.377312830909999e-15 2.968680261360000e-15 1.623405246520000e-15
8.791948290970003e-16 4.714830813330001e-16 2.503208029460000e-16 1.315538422610000e-16
6.842435270750000e-17 3.521616911190001e-17 1.793165335080000e-17 9.031643383440001e-18
4.498852501280001e-18 2.215870762730001e-18 1.078978117810000e-18 5.193063914980000e-19
2.469979963030000e-19 1.160734316720000e-19 5.388383796050001e-20 2.470495250340000e-20
1.118463928850000e-20 4.998656492359999e-21 2.205420560230001e-21 9.603089720340005e-22
4.127372056720001e-22 1.751973450080000e-22 7.340825012210001e-23 3.053471526330001e-23
1.269129452990000e-23 5.048108665110002e-24 1.978641963860000e-24 7.640383430190003e-25
2.905788159879999e-25 0.000000000000000e0 0.000000000000000e0 0.000000000000000e0
0.000000000000000e0 0.000000000000000e0 0.000000000000000e0 0.000000000000000e0
0.000000000000000e0 0.000000000000000e0 0.000000000000000e0 0.000000000000000e0
0.000000000000000e0 0.000000000000000e0 0.000000000000000e0 0.000000000000000e0
0.000000000000000e0 0.000000000000000e0 0.000000000000000e0 0.000000000000000e0
0.000000000000000e0 0.000000000000000e0 0.000000000000000e0 0.000000000000000e0
0.000000000000000e0 0.000000000000000e0 0.000000000000000e0 0.000000000000000e0
0.000000000000000e0 0.000000000000000e0 0.000000000000000e0 0.000000000000000e0
0.000000000000000e0 0.000000000000000e0 0.000000000000000e0 0.000000000000000e0
0.000000000000000e0 0.000000000000000e0 0.000000000000000e0 0.000000000000000e0
0.000000000000000e0 0.000000000000000e0 0.000000000000000e0 0.000000000000000e0
0.000000000000000e0 0.000000000000000e0 0.000000000000000e0 0.000000000000000e0
0.000000000000000e0 0.000000000000000e0 0.000000000000000e0 0.000000000000000e0
0.000000000000000e0 0.000000000000000e0 0.000000000000000e0 0.000000000000000e0
0.000000000000000e0 0.000000000000000e0 0.000000000000000e0 0.000000000000000e0
0.000000000000000e0 0.000000000000000e0 0.000000000000000e0 0.000000000000000e0
0.000000000000000e0 0.000000000000000e0 0.000000000000000e0 0.000000000000000e0
0.000000000000000e0 0.000000000000000e0 0.000000000000000e0 0.000000000000000e0
0.000000000000000e0 0.000000000000000e0 0.000000000000000e0 0.000000000000000e0
0.000000000000000e0 0.000000000000000e0 0.000000000000000e0 0.000000000000000e0
0.000000000000000e0 0.000000000000000e0 0.000000000000000e0 0.000000000000000e0
0.000000000000000e0 0.000000000000000e0 0.000000000000000e0 0.000000000000000e0
0.000000000000000e0 0.000000000000000e0 0.000000000000000e0 0.000000000000000e0
0.000000000000000e0 0.000000000000000e0 0.000000000000000e0 0.000000000000000e0
0.000000000000000e0 0.000000000000000e0 0.000000000000000e0 0.000000000000000e0
0.000000000000000e0 0.000000000000000e0 0.000000000000000e0 0.000000000000000e0
0.000000000000000e0 0.000000000000000e0 0.000000000000000e0 0.000000000000000e0
0.000000000000000e0 0.000000000000000e0 0.000000000000000e0 0.000000000000000e0
0.000000000000000e0 0.000000000000000e0 0.000000000000000e0 0.000000000000000e0
0.000000000000000e0 0.000000000000000e0 0.000000000000000e0 0.000000000000000e0
0.000000000000000e0 0.000000000000000e0 0.000000000000000e0 0.000000000000000e0
0.000000000000000e0 0.000000000000000e0 0.000000000000000e0 0.000000000000000e0
0.000000000000000e0 0.000000000000000e0 0.000000000000000e0 0.000000000000000e0
0.000000000000000e0 0.000000000000000e0 0.000000000000000e0 0.000000000000000e0
0.000000000000000e0 0.000000000000000e0 0.000000000000000e0 0.000000000000000e0
0.000000000000000e0 0.000000000000000e0 0.000000000000000e0 0.000000000000000e0
0.000000000000000e0 0.000000000000000e0 0.000000000000000e0 0.000000000000000e0
0.000000000000000e0 0.000000000000000e0 0.000000000000000e0 0.000000000000000e0
0.000000000000000e0 0.000000000000000e0 0.000000000000000e0 0.000000000000000e0
0.000000000000000e0 0.000000000000000e0 0.000000000000000e0 0.000000000000000e0
0.000000000000000e0 0.000000000000000e0 0.000000000000000e0 0.000000000000000e0
0.000000000000000e0 0.000000000000000e0 0.000000000000000e0 0.000000000000000e0
0.000000000000000e0 0.000000000000000e0 0.000000000000000e0 0.000000000000000e0
0.000000000000000e0 0.000000000000000e0 0.000000000000000e0 0.000000000000000e0
0.000000000000000e0 0.000000000000000e0 0.000000000000000e0
</PP_NLCC>
<PP_LOCAL columns="4">
-1.004512076690000e1 -1.004512076690000e1 -1.004512076700000e1 -1.004512076670000e1
-1.004512076670000e1 -1.004512076670000e1 -1.004512076660000e1 -1.004512076650000e1
-1.004512076640000e1 -1.004512076620000e1 -1.004512076610000e1 -1.004512076590000e1
-1.004512076570000e1 -1.004512076550000e1 -1.004512076520000e1 -1.004512076490000e1
-1.004512076460000e1 -1.004512076430000e1 -1.004512076400000e1 -1.004512076360000e1
-1.004512076310000e1 -1.004512076270000e1 -1.004512076220000e1 -1.004512076170000e1
-1.004512076110000e1 -1.004512076050000e1 -1.004512075990000e1 -1.004512075920000e1
-1.004512075850000e1 -1.004512075770000e1 -1.004512075690000e1 -1.004512075610000e1
-1.004512075510000e1 -1.004512075420000e1 -1.004512075310000e1 -1.004512075210000e1
-1.004512075090000e1 -1.004512074970000e1 -1.004512074840000e1 -1.004512074710000e1
-1.004512074570000e1 -1.004512074420000e1 -1.004512074260000e1 -1.004512074100000e1
-1.004512073920000e1 -1.004512073740000e1 -1.004512073550000e1 -1.004512073350000e1
-1.004512073140000e1 -1.004512072920000e1 -1.004512072690000e1 -1.004512072450000e1
-1.004512072200000e1 -1.004512071940000e1 -1.004512071660000e1 -1.004512071370000e1
-1.004512071070000e1 -1.004512070760000e1 -1.004512070430000e1 -1.004512070080000e1
-1.004512069720000e1 -1.004512069350000e1 -1.004512068960000e1 -1.004512068550000e1
-1.004512068120000e1 -1.004512067680000e1 -1.004512067210000e1 -1.004512066730000e1
-1.004512066230000e1 -1.004512065700000e1 -1.004512065150000e1 -1.004512064590000e1
-1.004512063990000e1 -1.004512063370000e1 -1.004512062730000e1 -1.004512062060000e1
-1.004512061360000e1 -1.004512060640000e1 -1.004512059880000e1 -1.004512059100000e1
-1.004512058280000e1 -1.004512057430000e1 -1.004512056550000e1 -1.004512055630000e1
-1.004512054680000e1 -1.004512053680000e1 -1.004512052650000e1 -1.004512051580000e1
-1.004512050460000e1 -1.004512049310000e1 -1.004512048100000e1 -1.004512046850000e1
-1.004512045550000e1 -1.004512044200000e1 -1.004512042800000e1 -1.004512041350000e1
-1.004512039840000e1 -1.004512038270000e1 -1.004512036640000e1 -1.004512034950000e1
-1.004512033200000e1 -1.004512031380000e1 -1.004512029490000e1 -1.004512027530000e1
-1.004512025490000e1 -1.004512023380000e1 -1.004512021190000e1 -1.004512018920000e1
-1.004512016560000e1 -1.004512014120000e1 -1.004512011580000e1 -1.004512008950000e1
-1.004512006220000e1 -1.004512003390000e1 -1.004512000460000e1 -1.004511997410000e1
-1.004511994260000e1 -1.004511990990000e1 -1.004511987600000e1 -1.004511984080000e1
-1.004511980440000e1 -1.004511976660000e1 -1.004511972740000e1 -1.004511968680000e1
-1.004511964480000e1 -1.004511960120000e1 -1.004511955600000e1 -1.004511950920000e1
-1.004511946060000e1 -1.004511941040000e1 -1.004511935830000e1 -1.004511930430000e1
-1.004511924840000e1 -1.004511919040000e1 -1.004511913040000e1 -1.004511906820000e1
-1.004511900380000e1 -1.004511893710000e1 -1.004511886790000e1 -1.004511879630000e1
-1.004511872220000e1 -1.004511864530000e1 -1.004511856580000e1 -1.004511848340000e1
-1.004511839810000e1 -1.004511830970000e1 -1.004511821820000e1 -1.004511812340000e1
-1.004511802520000e1 -1.004511792360000e1 -1.004511781840000e1 -1.004511770940000e1
-1.004511759660000e1 -1.004511747980000e1 -1.004511735890000e1 -1.004511723370000e1
-1.004511710410000e1 -1.004511696990000e1 -1.004511683090000e1 -1.004511668710000e1
-1.004511653820000e1 -1.004511638410000e1 -1.004511622450000e1 -1.004511605940000e1
-1.004511588840000e1 -1.004511571150000e1 -1.004511552830000e1 -1.004511533870000e1
-1.004511514250000e1 -1.004511493940000e1 -1.004511472920000e1 -1.004511451170000e1
-1.004511428650000e1 -1.004511405350000e1 -1.004511381240000e1 -1.004511356280000e1
-1.004511330450000e1 -1.004511303720000e1 -1.004511276060000e1 -1.004511247440000e1
-1.004511217820000e1 -1.004511187170000e1 -1.004511155460000e1 -1.004511122640000e1
-1.004511088680000e1 -1.004511053540000e1 -1.004511017180000e1 -1.004510979560000e1
-1.004510940640000e1 -1.004510900360000e1 -1.004510858690000e1 -1.004510815570000e1
-1.004510770960000e1 -1.004510724810000e1 -1.004510677060000e1 -1.004510627650000e1
-1.004510576540000e1 -1.004510523660000e1 -1.004510468950000e1 -1.004510412350000e1
-1.004510353800000e1 -1.004510293220000e1 -1.004510230560000e1 -1.004510165730000e1
-1.004510098660000e1 -1.004510029280000e1 -1.004509957510000e1 -1.004509883260000e1
-1.004509806460000e1 -1.004509727010000e1 -1.004509644820000e1 -1.004509559810000e1
-1.004509471870000e1 -1.004509380900000e1 -1.004509286800000e1 -1.004509189460000e1
-1.004509088780000e1 -1.004508984640000e1 -1.004508876920000e1 -1.004508765490000e1
-1.004508650240000e1 -1.004508531030000e1 -1.004508407730000e1 -1.004508280190000e1
-1.004508148280000e1 -1.004508011830000e1 -1.004507870710000e1 -1.004507724750000e1
-1.004507573780000e1 -1.004507417640000e1 -1.004507256140000e1 -1.004507089100000e1
-1.004506916350000e1 -1.004506737670000e1 -1.004506552880000e1 -1.004506361750000e1
-1.004506164080000e1 -1.004505959640000e1 -1.004505748200000e1 -1.004505529530000e1
-1.004505303380000e1 -1.004505069480000e1 -1.004504827590000e1 -1.004504577420000e1
-1.004504318700000e1 -1.004504051120000e1 -1.004503774410000e1 -1.004503488230000e1
-1.004503192270000e1 -1.004502886200000e1 -1.004502569670000e1 -1.004502242330000e1
-1.004501903800000e1 -1.004501553720000e1 -1.004501191680000e1 -1.004500817270000e1
-1.004500430090000e1 -1.004500029680000e1 -1.004499615610000e1 -1.004499187410000e1
-1.004498744600000e1 -1.004498286680000e1 -1.004497813140000e1 -1.004497323440000e1
-1.004496817040000e1 -1.004496293370000e1 -1.004495751840000e1 -1.004495191850000e1
-1.004494612770000e1 -1.004494013940000e1 -1.004493394710000e1 -1.004492754370000e1
-1.004492092210000e1 -1.004491407480000e1 -1.004490699430000e1 -1.004489967250000e1
-1.004489210130000e1 -1.004488427220000e1 -1.004487617650000e1 -1.004486780500000e1
-1.004485914860000e1 -1.004485019730000e1 -1.004484094130000e1 -1.004483137010000e1
-1.004482147320000e1 -1.004481123940000e1 -1.004480065730000e1 -1.004478971500000e1
-1.004477840040000e1 -1.004476670080000e1 -1.004475460320000e1 -1.004474209390000e1
-1.004472915920000e1 -1.004471578440000e1 -1.004470195480000e1 -1.004468765470000e1
-1.004467286850000e1 -1.004465757930000e1 -1.004464177040000e1 -1.004462542390000e1
-1.004460852170000e1 -1.004459104490000e1 -1.004457297410000e1 -1.004455428900000e1
-1.004453496900000e1 -1.004451499220000e1 -1.004449433670000e1 -1.004447297930000e1
-1.004445089630000e1 -1.004442806300000e1 -1.004440445410000e1 -1.004438004300000e1
-1.004435480300000e1 -1.004432870550000e1 -1.004430172190000e1 -1.004427382180000e1
-1.004424497440000e1 -1.004421514740000e1 -1.004418430790000e1 -1.004415242120000e1
-1.004411945220000e1 -1.004408536390000e1 -1.004405011890000e1 -1.004401367740000e1
-1.004397599950000e1 -1.004393704270000e1 -1.004389676440000e1 -1.004385511920000e1
-1.004381206150000e1 -1.004376754280000e1 -1.004372151430000e1 -1.004367392430000e1
-1.004362472060000e1 -1.004357384800000e1 -1.004352125070000e1 -1.004346686970000e1
-1.004341064530000e1 -1.004335251450000e1 -1.004329241370000e1 -1.004323027540000e1
-1.004316603160000e1 -1.004309961030000e1 -1.004303093880000e1 -1.004295994010000e1
-1.004288653670000e1 -1.004281064630000e1 -1.004273218600000e1 -1.004265106790000e1
-1.004256720340000e1 -1.004248049870000e1 -1.004239085920000e1 -1.004229818460000e1
-1.004220237390000e1 -1.004210331980000e1 -1.004200091460000e1 -1.004189504370000e1
-1.004178559190000e1 -1.004167243700000e1 -1.004155545580000e1 -1.004143451790000e1
-1.004130949170000e1 -1.004118023790000e1 -1.004104661600000e1 -1.004090847730000e1
-1.004076567160000e1 -1.004061804040000e1 -1.004046542310000e1 -1.004030765050000e1
-1.004014455130000e1 -1.003997594460000e1 -1.003980164780000e1 -1.003962146760000e1
-1.003943520900000e1 -1.003924266600000e1 -1.003904363030000e1 -1.003883788190000e1
-1.003862519860000e1 -1.003840534570000e1 -1.003817808610000e1 -1.003794316920000e1
-1.003770034220000e1 -1.003744933760000e1 -1.003718988560000e1 -1.003692170110000e1
-1.003664449620000e1 -1.003635796670000e1 -1.003606180580000e1 -1.003575568890000e1
-1.003543928870000e1 -1.003511225940000e1 -1.003477425190000e1 -1.003442489740000e1
-1.003406382400000e1 -1.003369063860000e1 -1.003330494470000e1 -1.003290632330000e1
-1.003249435210000e1 -1.003206858470000e1 -1.003162857110000e1 -1.003117383590000e1
-1.003070389970000e1 -1.003021825630000e1 -1.002971639540000e1 -1.002919777780000e1
-1.002866186050000e1 -1.002810806960000e1 -1.002753582710000e1 -1.002694452260000e1
-1.002633354120000e1 -1.002570223350000e1 -1.002504994560000e1 -1.002437598710000e1
-1.002367966290000e1 -1.002296023930000e1 -1.002221697740000e1 -1.002144909780000e1
-1.002065581580000e1 -1.001983630360000e1 -1.001898972830000e1 -1.001811521100000e1
-1.001721186790000e1 -1.001627876670000e1 -1.001531497000000e1 -1.001431948940000e1
-1.001329133110000e1 -1.001222944780000e1 -1.001113278690000e1 -1.001000023920000e1
-1.000883069040000e1 -1.000762296660000e1 -1.000637588920000e1 -1.000508821680000e1
-1.000375870370000e1 -1.000238603810000e1 -1.000096890440000e1 -9.999505917730000e0
-9.997995689910001e0 -9.996436760380000e0 -9.994827665750000e0 -9.993166867119999e0
-9.991452823520000e0 -9.989683915260001e0 -9.987858521550001e0 -9.985974939689999e0
-9.984031467030000e0 -9.982026315900001e0 -9.979957700060000e0 -9.977823745229999e0
-9.975622580200000e0 -9.973352242840001e0 -9.971010775980000e0 -9.968596128900000e0
-9.966106258020000e0 -9.963539023790000e0 -9.960892296390000e0 -9.958163847840000e0
-9.955351462890000e0 -9.952452826369999e0 -9.949465639180000e0 -9.946387500929999e0
-9.943216031220000e0 -9.939948747450000e0 -9.936583191340000e0 -9.933116802160001e0
-9.929547048320000e0 -9.925871296200000e0 -9.922086946680000e0 -9.918191299749999e0
-9.914181695780000e0 -9.910055376280001e0 -9.905809629520000e0 -9.901441647820000e0
-9.896948677190000e0 -9.892327871530000e0 -9.887576445800001e0 -9.882691527780000e0
-9.877670314010000e0 -9.872509919780001e0 -9.867207537160001e0 -9.861760283930000e0
-9.856165362720001e0 -9.850419909799999e0 -9.844521154270000e0 -9.838466267690000e0
-9.832252521879999e0 -9.825877140779999e0 -9.819337455119999e0 -9.812630757859999e0
-9.805754453950000e0 -9.798705920830001e0 -9.791482651130000e0 -9.784082119930000e0
-9.776501917939999e0 -9.768739627370000e0 -9.760792942820000e0 -9.752659557819999e0
-9.744337270270000e0 -9.735823881889999e0 -9.727117284669999e0 -9.718215375640000e0
-9.709116120550000e0 -9.699817486430000e0 -9.690317478290000e0 -9.680614092180001e0
-9.670705320510001e0 -9.660589128260000e0 -9.650263422240000e0 -9.639726053320000e0
-9.628974744780001e0 -9.618007123450001e0 -9.606820602250000e0 -9.595412443100001e0
-9.583779589090000e0 -9.571918761910000e0 -9.559826239350000e0 -9.547497990149999e0
-9.534929393290000e0 -9.522115413000000e0 -9.509050257400000e0 -9.495727596609999e0
-9.482140159829999e0 -9.468279999540000e0 -9.454138028510000e0 -9.439704333360000e0
-9.424967655880000e0 -9.409915759950000e0 -9.394534865390000e0 -9.378810073080000e0
-9.362724764639999e0 -9.346261091970000e0 -9.329399361789999e0 -9.312118598070001e0
-9.294395937370000e0 -9.276207274980001e0 -9.257526704580000e0 -9.238327261600000e0
-9.218580448339999e0 -9.198257089649999e0 -9.177326990410000e0 -9.155759917679999e0
-9.133525438260000e0 -9.110594033410001e0 -9.086937154910000e0 -9.062528456700001e0
-9.037344079740000e0 -9.011363938950000e0 -8.984572187990000e0 -8.956958416379999e0
-8.928518141040000e0 -8.899253633010000e0 -8.869174122700000e0 -8.838295781110000e0
-8.806641111079999e0 -8.774237364379999e0 -8.741114343330000e0 -8.707300272090000e0
-8.672816990350000e0 -8.637672056190000e0 -8.601850127560001e0 -8.565299958650000e0
-8.527920894519999e0 -8.489544096590000e0 -8.449915021900001e0 -8.408672726660001e0
-8.365338368670001e0 -8.319313196960000e0 -8.269910456160000e0 -8.216432848380000e0
-8.158337476620000e0 -8.095511217469999e0 -8.028730628550001e0 -7.960894224710000e0
-7.896066419390000e0 -7.834461128740000e0 -7.772853357840000e0 -7.709904497730000e0
-7.645900182650000e0 -7.580855767610000e0 -7.514757740110000e0 -7.447589051500000e0
-7.379328286260000e0 -7.309947050900000e0 -7.239412317360000e0 -7.167683289260000e0
-7.094712362630000e0 -7.020440475250000e0 -6.944795942490000e0 -6.867688683300000e0
-6.789009411010000e0 -6.708628558140000e0 -6.626405202020000e0 -6.542201910130000e0
-6.455911249380000e0 -6.367483081450000e0 -6.276946030390000e0 -6.184403599350000e0
-6.089994148900000e0 -5.993804052520000e0 -5.895764268590000e0 -5.795291699410000e0
-5.691298771330000e0 -5.584222568400000e0 -5.477046872940000e0 -5.372286935330000e0
-5.270314495160000e0 -5.171009955870000e0 -5.074533284320000e0 -4.981097686800000e0
-4.890989448190000e0 -4.804568538270000e0 -4.722262522800000e0 -4.643904396190000e0
-4.566909511480000e0 -4.491222737520000e0 -4.416817119820000e0 -4.343667547570000e0
-4.271749529800000e0 -4.201039600150000e0 -4.131514793230000e0 -4.063153223480000e0
-3.995933407280000e0 -3.929834765400000e0 -3.864837089380000e0 -3.800920927860000e0
-3.738067174130000e0 -3.676257358840000e0 -3.615473335190000e0 -3.555697497520000e0
-3.496912543750000e0 -3.439101636420000e0 -3.382248225170000e0 -3.326336163850000e0
-3.271349579020000e0 -3.217272954030000e0 -3.164091032180000e0 -3.111788876480000e0
-3.060351798740000e0 -3.009765399620000e0 -2.960015522350000e0 -2.911088274720000e0
-2.862969990620000e0 -2.815647260140000e0 -2.769106888810000e0 -2.723335918650000e0
-2.678321603650000e0 -2.634051420260000e0 -2.590513050060000e0 -2.547694386430000e0
-2.505583521080000e0 -2.464168748330000e0 -2.423438554390000e0 -2.383381619880000e0
-2.343986811150000e0 -2.305243181480000e0 -2.267139964000000e0 -2.229666571870000e0
-2.192812592370000e0 -2.156567786380000e0 -2.120922083270000e0 -2.085865580090000e0
-2.051388536790000e0 -2.017481375430000e0 -1.984134675300000e0 -1.951339172470000e0
-1.919085756310000e0 -1.887365466670000e0 -1.856169489450000e0 -1.825489159570000e0
-1.795315952400000e0 -1.765641486200000e0 -1.736457515800000e0 -1.707755934260000e0
-1.679528766550000e0 -1.651768171460000e0 -1.624466435340000e0 -1.597615974020000e0
-1.571209326700000e0 -1.545239157860000e0 -1.519698251350000e0 -1.494579512140000e0
-1.469875960790000e0 -1.445580734920000e0 -1.421687084100000e0 -1.398188370930000e0
-1.375078066510000e0 -1.352349751110000e0 -1.329997110060000e0 -1.308013934120000e0
-1.286394115860000e0 -1.265131649620000e0 -1.244220628320000e0 -1.223655243230000e0
-1.203429781030000e0 -1.183538623410000e0 -1.163976244440000e0 -1.144737209960000e0
-1.125816175280000e0 -1.107207884330000e0 -1.088907167670000e0 -1.070908941510000e0
-1.053208205900000e0 -1.035800043680000e0 -1.018679618820000e0 -1.001842175330000e0
-9.852830357420000e-1 -9.689975999580000e-1 -9.529813438530001e-1 -9.372298181320000e-1
-9.217386469920001e-1 -9.065035269979999e-1 -8.915202258119999e-1 -8.767845810800001e-1
-8.622924992289999e-1 -8.480399543659999e-1 -8.340229871320000e-1 -8.202377036270001e-1
-8.066802743049999e-1 -7.933469329310000e-1 -7.802339755210000e-1 -7.673377593210001e-1
-7.546547017870000e-1 -7.421812796000000e-1 -7.299140276770000e-1 -7.178495382159999e-1
-7.059844597430000e-1 -6.943154961869999e-1 -6.828394059580000e-1 -6.715530010500000e-1
-6.604531461550000e-1 -6.495367577880000e-1 -6.388008034380000e-1 -6.282423007170000e-1
-6.178583165350000e-1 -6.076459662880001e-1 -5.976024130490000e-1 -5.877248667880000e-1
-5.780105835900001e-1 -5.684568648970000e-1 -5.590610567560001e-1 -5.498205490840000e-1
-5.407327749380000e-1 -5.317952098070000e-1 -5.230053709110000e-1 -5.143608165210000e-1
-5.058591451180000e-1 -4.974979953790000e-1 -4.892750441380000e-1 -4.811880076410000e-1
-4.732346389660000e-1 -4.654127289100000e-1 -4.577201046190000e-1 -4.501546291570000e-1
-4.427142009060000e-1 -4.353967529880000e-1 -4.282002526890000e-1 -4.211227008910000e-1
-4.141621315230000e-1 -4.073166110100000e-1 -4.005842377350000e-1 -3.939631415150000e-1
-3.874514830790000e-1 -3.810474535570000e-1 -3.747492739780000e-1 -3.685551947750000e-1
-3.624634952990000e-1 -3.564724833440000e-1 -3.505804946710000e-1 -3.447858925520000e-1
-3.390870673110000e-1 -3.334824358780000e-1 -3.279704413490000e-1 -3.225495525560000e-1
-3.172182636370000e-1 -3.119750936210000e-1 -3.068185860180000e-1 -3.017473084080000e-1
-2.967598520510000e-1 -2.918548314900000e-1 -2.870308841680000e-1 -2.822866700510000e-1
-2.776208712510000e-1 -2.730321916670000e-1 -2.685193566190000e-1 -2.640811124960000e-1
-2.597162264080000e-1 -2.554234858430000e-1 -2.512016983310000e-1 -2.470496911110000e-1
-2.429663108080000e-1 -2.389504231090000e-1 -2.350009124510000e-1 -2.311166817100000e-1
-2.272966518960000e-1 -2.235397618560000e-1 -2.198449679190000e-1 -2.162112439340000e-1
-2.126375802140000e-1 -2.091229841450000e-1 -2.056664794400000e-1 -2.022671059280000e-1
-1.989239193070000e-1 -1.956359908800000e-1 -1.924024073030000e-1 -1.892222703290000e-1
-1.860946965570000e-1 -1.830188171880000e-1 -1.799937777830000e-1 -1.770187380270000e-1
-1.740928714940000e-1 -1.712153654170000e-1 -1.683854204640000e-1 -1.656022505130000e-1
-1.628650824380000e-1 -1.601731558920000e-1 -1.575257230930000e-1 -1.549220486200000e-1
-1.523614092090000e-1 -1.498430935490000e-1 -1.473664020860000e-1 -1.449306468300000e-1
-1.425351511610000e-1 -1.401792496440000e-1 -1.378622878420000e-1 -1.355836221360000e-1
-1.333426195440000e-1 -1.311386575460000e-1 -1.289711239130000e-1 -1.268394165340000e-1
-1.247429432510000e-1 -1.226811216940000e-1 -1.206533791170000e-1 -1.186591522420000e-1
-1.166978871010000e-1 -1.147690388830000e-1 -1.128720717810000e-1 -1.110064588440000e-1
-1.091716818320000e-1 -1.073672310700000e-1 -1.055926053080000e-1 -1.038473115790000e-1
-1.021308650670000e-1 -1.004427889670000e-1 -9.878261435589998e-2 -9.714988006150000e-2
-9.554413253350001e-2 -9.396492571869999e-2 -9.241182093630000e-2 -9.088438675630000e-2
-8.938219887970000e-2 -8.790484002060001e-2 -8.645189979030000e-2 -8.502297458330000e-2
-8.361766746490000e-2 -8.223558806160000e-2 -8.087635245169999e-2 -7.953958305980001e-2
-7.822490855090001e-2 -7.693196372780000e-2 -7.566038942940000e-2 -7.440983243120001e-2
-7.317994534699999e-2 -7.197038653220000e-2 -7.078081998940000e-2 -6.961091527460001e-2
-6.846034740570000e-2 -6.732879677190001e-2 -6.621594904529999e-2 -6.512149509350000e-2
-6.404513089340000e-2 -6.298655744710000e-2 -6.194548069860000e-2 -6.092161145250000e-2
-5.991466529310000e-2 -5.892436250599999e-2 -5.795042799970000e-2 -5.699259123000000e-2
-5.605058612420000e-2 -5.512415100729999e-2 -5.421302852970000e-2 -5.331696559520001e-2
-5.243571329100000e-2 -5.156902681859999e-2 -5.071666542550000e-2 -4.987839233860000e-2
-4.905397469820000e-2 -4.824318349369999e-2 -4.744579349950000e-2 -4.666158321280000e-2
-4.589033479170000e-2 -4.513183399530000e-2 -4.438587012340000e-2 -4.365223595870000e-2
-4.293072770860000e-2 -4.222114494930000e-2 -4.152329056939999e-2 -4.083697071550000e-2
-4.016199473860000e-2 -3.949817514040000e-2 -3.884532752220000e-2
</PP_LOCAL>
<PP_NONLOCAL>
<PP_BETA.1 index="1" label="3S" angular_momentum="0" cutoff_radius_index="627" cutoff_radius="1.000000000000e1" ultrasoft_cutoff_radius="1.700000000000e0">
0.000000000000000e0 -2.093758202070000e-6 -4.222217661519999e-6 -6.395301621110000e-6
-8.593361530650000e-6 -1.082884527440000e-5 -1.311036117550000e-5 -1.541783306090000e-5
-1.779314967850000e-5 -2.015486971890000e-5 -2.262392258130000e-5 -2.505368693380000e-5
-2.761847792510000e-5 -3.014488605550000e-5 -3.276581367450000e-5 -3.538114771320000e-5
-3.812074869480000e-5 -4.081159871600001e-5 -4.359736309440001e-5 -4.643103790640001e-5
-4.932030165480001e-5 -5.224509396890000e-5 -5.518942827690000e-5 -5.821275144280000e-5
-6.132650336620000e-5 -6.441664641430000e-5 -6.761569505519999e-5 -7.079510315680000e-5
-7.415775233960000e-5 -7.743791492490000e-5 -8.085792045580000e-5 -8.432372544420002e-5
-8.779300974880000e-5 -9.142387473699999e-5 -9.499133023060001e-5 -9.872776201540001e-5
-1.024586580770000e-4 -1.062778905560000e-4 -1.101870041950000e-4 -1.140883958790000e-4
-1.181288849020000e-4 -1.222008496090000e-4 -1.263556817120000e-4 -1.305595060190000e-4
-1.348518504960000e-4 -1.392299942120000e-4 -1.436403315420000e-4 -1.481577112010000e-4
-1.527661918570000e-4 -1.573883822070000e-4 -1.621643347260000e-4 -1.669559995110000e-4
-1.718587738250000e-4 -1.768573465510000e-4 -1.819150633350000e-4 -1.870743915510000e-4
-1.923185293860000e-4 -1.976018873850000e-4 -2.030810198850000e-4 -2.085315360580000e-4
-2.141707798360000e-4 -2.198620271880000e-4 -2.256092443570000e-4 -2.315370782130000e-4
-2.375123366340000e-4 -2.435966668070000e-4 -2.497970812630000e-4 -2.560746849690000e-4
-2.624609381770000e-4 -2.690075555750000e-4 -2.755891292569999e-4 -2.823080983160000e-4
-2.891747475879999e-4 -2.961283975370000e-4 -3.031789035010000e-4 -3.103896183750000e-4
-3.176866916990000e-4 -3.250882651680000e-4 -3.327327940670000e-4 -3.403405867590000e-4
-3.482019910480000e-4 -3.561010771219999e-4 -3.642320450560000e-4 -3.724125025760000e-4
-3.807833301350000e-4 -3.892745498410000e-4 -3.979110444650000e-4 -4.066753237329999e-4
-4.156287850859999e-4 -4.246980680480000e-4 -4.339375548970001e-4 -4.433187901070000e-4
-4.528502051750000e-4 -4.625868528290001e-4 -4.724297362290000e-4 -4.824747192310000e-4
-4.926737033150000e-4 -5.030596701970000e-4 -5.135825181610000e-4 -5.243491105950000e-4
-5.352124573159999e-4 -5.463308858640000e-4 -5.575969512510000e-4 -5.690695286440000e-4
-5.807106085410001e-4 -5.925817455829999e-4 -6.046335352069999e-4 -6.168847542610000e-4
-6.293526214160000e-4 -6.420157700150000e-4 -6.549033170940000e-4 -6.680029559670000e-4
-6.813339421430000e-4 -6.948785250269999e-4 -7.086181601989999e-4 -7.226831168430001e-4
-7.368717103450000e-4 -7.513658984740000e-4 -7.660984392229999e-4 -7.810529257459999e-4
-7.962847274649999e-4 -8.117555744590000e-4 -8.274916131470000e-4 -8.435095841380001e-4
-8.597554271349999e-4 -8.763200936259999e-4 -8.931342844300000e-4 -9.102337191690001e-4
-9.276310197210000e-4 -9.453271534630002e-4 -9.632833945550001e-4 -9.815858825159999e-4
-1.000172339950000e-3 -1.019081976640000e-3 -1.038297015550000e-3 -1.057834579390000e-3
-1.077727778170000e-3 -1.097915669840000e-3 -1.118468433690000e-3 -1.139367897490000e-3
-1.160600871530000e-3 -1.182202794110000e-3 -1.204168261670000e-3 -1.226499746000000e-3
-1.249211755340000e-3 -1.272293003380000e-3 -1.295771889510000e-3 -1.319645285170000e-3
-1.343925495770000e-3 -1.368591788430000e-3 -1.393698185010000e-3 -1.419210257550000e-3
-1.445162521560000e-3 -1.471536680110000e-3 -1.498367207750000e-3 -1.525645432670000e-3
-1.553376932200000e-3 -1.581578211660000e-3 -1.610262044450000e-3 -1.639401195090000e-3
-1.669070100250000e-3 -1.699195854000000e-3 -1.729858029920000e-3 -1.761022265660000e-3
-1.792712903280000e-3 -1.824942336700000e-3 -1.857696689930000e-3 -1.891023200010000e-3
-1.924891309110000e-3 -1.959337434060000e-3 -1.994370017430000e-3 -2.029968700910000e-3
-2.066182876630000e-3 -2.103012832030000e-3 -2.140440907380000e-3 -2.178515040210000e-3
-2.217211232490000e-3 -2.256583317950000e-3 -2.296593759520000e-3 -2.337287051660000e-3
-2.378664889930000e-3 -2.420737849370000e-3 -2.463508882400000e-3 -2.507013971290000e-3
-2.551230061080000e-3 -2.596221100240000e-3 -2.641934056410000e-3 -2.688428871410000e-3
-2.735716531540000e-3 -2.783773028710000e-3 -2.832669790750000e-3 -2.882359097360000e-3
-2.932899392210000e-3 -2.984284865680000e-3 -3.036533237360000e-3 -3.089669475560000e-3
-3.143673227590000e-3 -3.198612131190000e-3 -3.254465672280000e-3 -3.311250516230000e-3
-3.368995490210000e-3 -3.427713818830000e-3 -3.487410107540001e-3 -3.548121773920000e-3
-3.609838258080000e-3 -3.672609819149999e-3 -3.736423126840000e-3 -3.801312832799999e-3
-3.867297265830000e-3 -3.934379837010000e-3 -4.002601505730000e-3 -4.071966653310000e-3
-4.142490913300001e-3 -4.214207365360000e-3 -4.287127177940000e-3 -4.361272868860000e-3
-4.436666898480000e-3 -4.513320225870000e-3 -4.591267422640000e-3 -4.670528873689999e-3
-4.751111465989999e-3 -4.833062085270000e-3 -4.916372624780000e-3 -5.001100209980001e-3
-5.087245548260000e-3 -5.174828824840001e-3 -5.263902941260000e-3 -5.354459615660000e-3
-5.446540823400000e-3 -5.540175617949999e-3 -5.635376670139999e-3 -5.732180746060001e-3
-5.830612654340000e-3 -5.930698802289999e-3 -6.032463238690000e-3 -6.135943719919999e-3
-6.241158368130000e-3 -6.348145242030000e-3 -6.456924487439998e-3 -6.567540581740000e-3
-6.680006190249999e-3 -6.794368928529999e-3 -6.910650081920000e-3 -7.028885816749999e-3
-7.149109090510000e-3 -7.271355586890000e-3 -7.395651295150001e-3 -7.522038200950000e-3
-7.650550054740000e-3 -7.781222718300000e-3 -7.914087419780000e-3 -8.049189004040000e-3
-8.186557257250000e-3 -8.326239633460000e-3 -8.468261708940000e-3 -8.612679441210000e-3
-8.759517258750000e-3 -8.908825415570000e-3 -9.060642573539999e-3 -9.215013593760000e-3
-9.371971800220001e-3 -9.531576475110001e-3 -9.693858901020000e-3 -9.858866910809999e-3
-1.002665166870000e-2 -1.019725479580000e-2 -1.037072435640000e-2 -1.054710993160000e-2
-1.072645877360000e-2 -1.090882207510000e-2 -1.109425113620000e-2 -1.128279477320000e-2
-1.147450916150000e-2 -1.166944158420000e-2 -1.186765388090000e-2 -1.206919384400000e-2
-1.227412353810000e-2 -1.248249566590000e-2 -1.269436809750000e-2 -1.290980536720000e-2
-1.312885733580000e-2 -1.335159642160000e-2 -1.357807355040000e-2 -1.380835804770000e-2
-1.404251622430000e-2 -1.428060179240000e-2 -1.452269563940000e-2 -1.476885359330000e-2
-1.501914906910000e-2 -1.527365153750000e-2 -1.553242981300000e-2 -1.579555672610000e-2
-1.606310504320000e-2 -1.633514996600000e-2 -1.661176672100000e-2 -1.689303074490000e-2
-1.717902108680000e-2 -1.746981774200000e-2 -1.776550115690000e-2 -1.806615188830000e-2
-1.837185635010000e-2 -1.868269633110000e-2 -1.899876015660000e-2 -1.932013442780000e-2
-1.964690985070000e-2 -1.997917398950000e-2 -2.031702367660000e-2 -2.066054884610000e-2
-2.100984615740000e-2 -2.136501355300000e-2 -2.172614707490000e-2 -2.209334988970000e-2
-2.246672198300000e-2 -2.284636733280000e-2 -2.323239209710000e-2 -2.362490137350000e-2
-2.402400843420000e-2 -2.442981706830000e-2 -2.484244744380000e-2 -2.526200833750000e-2
-2.568861886470000e-2 -2.612239680780000e-2 -2.656346295500000e-2 -2.701193770340000e-2
-2.746794967570000e-2 -2.793161993740000e-2 -2.840308106010000e-2 -2.888246231180000e-2
-2.936989677520000e-2 -2.986552002660000e-2 -3.036946905030000e-2 -3.088188363450000e-2
-3.140290578310001e-2 -3.193268079650000e-2 -3.247135386570000e-2 -3.301907654420000e-2
-3.357599819680001e-2 -3.414227507250000e-2 -3.471806377490000e-2 -3.530352346470000e-2
-3.589881514960000e-2 -3.650410746370000e-2 -3.711956388250000e-2 -3.774535765390000e-2
-3.838166118980000e-2 -3.902865039790000e-2 -3.968650578790000e-2 -4.035540837440000e-2
-4.103554242280000e-2 -4.172709950810000e-2 -4.243026750770000e-2 -4.314524396570000e-2
-4.387222397650000e-2 -4.461141108340000e-2 -4.536300891550000e-2 -4.612722580950001e-2
-4.690427181920000e-2 -4.769436364260000e-2 -4.849771872020000e-2 -4.931455969540000e-2
-5.014511218690000e-2 -5.098960550300000e-2 -5.184827383600000e-2 -5.272135362429999e-2
-5.360908640820000e-2 -5.451171798559999e-2 -5.542949635850000e-2 -5.636267623249999e-2
-5.731151467360000e-2 -5.827627337679999e-2 -5.925721900020000e-2 -6.025462202100000e-2
-6.126875711699999e-2 -6.229990513940001e-2 -6.334834893580000e-2 -6.441437816570001e-2
-6.549828690010000e-2 -6.660037282630000e-2 -6.772094075670000e-2 -6.886029752360000e-2
-7.001875831069999e-2 -7.119664085870001e-2 -7.239426946570000e-2 -7.361197340370000e-2
-7.485008747520000e-2 -7.610895147500001e-2 -7.738891189679999e-2 -7.869031951570000e-2
-8.001353159699999e-2 -8.135891115720000e-2 -8.272682764420001e-2 -8.411765468850000e-2
-8.553177523380000e-2 -8.696957444050001e-2 -8.843144739269999e-2 -8.991779332669999e-2
-9.142901872770000e-2 -9.296553623350000e-2 -9.452776645950001e-2 -9.611613469160002e-2
-9.773107457330001e-2 -9.937302662480000e-2 -1.010424382520000e-1 -1.027397632430000e-1
-1.044654641240000e-1 -1.062200096960000e-1 -1.080038766560000e-1 -1.098175492530000e-1
-1.116615195390000e-1 -1.135362868660000e-1 -1.154423594620000e-1 -1.173802523880000e-1
-1.193504900370000e-1 -1.213536038000000e-1 -1.233901347260000e-1 -1.254606309760000e-1
-1.275656504520000e-1 -1.297057588120000e-1 -1.318815315220000e-1 -1.340935514420000e-1
-1.363424118870000e-1 -1.386287146550000e-1 -1.409530706460000e-1 -1.433161002650000e-1
-1.457184335760000e-1 -1.481607095670000e-1 -1.506435773950000e-1 -1.531676960810000e-1
-1.557337338440000e-1 -1.583423693820000e-1 -1.609942916550000e-1 -1.636901987380000e-1
-1.664308004910000e-1 -1.692168155390000e-1 -1.720489743640000e-1 -1.749280168720000e-1
-1.778546940710000e-1 -1.808297677920000e-1 -1.838540103860000e-1 -1.869282050610000e-1
-1.900531459190000e-1 -1.932296383970000e-1 -1.964584985060000e-1 -1.997405533380000e-1
-2.030766418910000e-1 -2.064676131760000e-1 -2.099143284860000e-1 -2.134176594330000e-1
-2.169784898140000e-1 -2.205977139060000e-1 -2.242762376420000e-1 -2.280149781080000e-1
-2.318148636680000e-1 -2.356768337860000e-1 -2.396018392780000e-1 -2.435908415460000e-1
-2.476448137340000e-1 -2.517647392460000e-1 -2.559516125600000e-1 -2.602064388980000e-1
-2.645302337800000e-1 -2.689240233910000e-1 -2.733888435390000e-1 -2.779257408070000e-1
-2.825357706320000e-1 -2.872199984930000e-1 -2.919794986460000e-1 -2.968153543840000e-1
-3.017286573870000e-1 -3.067205074440000e-1 -3.117920117140000e-1 -3.169442850640000e-1
-3.221784482010000e-1 -3.274956288510000e-1 -3.328969593350000e-1 -3.383835772790000e-1
-3.439566244570000e-1 -3.496172454640000e-1 -3.553665879110000e-1 -3.612058006570000e-1
-3.671360331490000e-1 -3.731584346490000e-1 -3.792741523000000e-1 -3.854843309570000e-1
-3.917901109390000e-1 -3.981926271350000e-1 -4.046930073290000e-1 -4.112923705610000e-1
-4.179918253500000e-1 -4.247924679000000e-1 -4.316953799300000e-1 -4.387016265110000e-1
-4.458122540680000e-1 -4.530282872130000e-1 -4.603507267510000e-1 -4.677805464050000e-1
-4.753186897250000e-1 -4.829660671040000e-1 -4.907235518670000e-1 -4.985919766240000e-1
-5.065721294449999e-1 -5.146647487829999e-1 -5.228705199460000e-1 -5.311900691080000e-1
-5.396239582810000e-1 -5.481726797010000e-1 -5.568366498220000e-1 -5.656162020330000e-1
-5.745115808830001e-1 -5.835229330240001e-1 -5.926503003850000e-1 -6.018936110150000e-1
-6.112526695850001e-1 -6.207271482480000e-1 -6.303165749460000e-1 -6.400203231620000e-1
-6.498375989640000e-1 -6.597674281940000e-1 -6.698086428220000e-1 -6.799598653890000e-1
-6.902194938630000e-1 -7.005856833760000e-1 -7.110563294120000e-1 -7.216290467349999e-1
-7.323011494760000e-1 -7.430696283210000e-1 -7.539311265560000e-1 -7.648819145700000e-1
-7.759178626510001e-1 -7.870344115209999e-1 -7.982265413890000e-1 -8.094887388940000e-1
-8.208149614830001e-1 -8.321985997230000e-1 -8.436324375910001e-1 -8.551086095500001e-1
-8.666185554069999e-1 -8.781529723440000e-1 -8.897017644120000e-1 -9.012539882600000e-1
-9.127977972260000e-1 -9.243203808650000e-1 -9.358079026560000e-1 -9.472454341590000e-1
-9.586168857820001e-1 -9.699049354130000e-1 -9.810909534289999e-1 -9.921549257390000e-1
-1.003075374120000e0 -1.013829274430000e0 -1.024391973830000e0 -1.034737106740000e0
-1.044836510080000e0 -1.054660140330000e0 -1.064175991040000e0 -1.073350013920000e0
-1.082146044430000e0 -1.090525732980000e0 -1.098448484530000e0 -1.105871409190000e0
-1.112749284440000e0 -1.119034535230000e0 -1.124677232050000e0 -1.129625113070000e0
-1.133823633640000e0 -1.137216047290000e0 -1.139743524440000e0 -1.141345313350000e0
-1.141958948620000e0 -1.141520515060000e0 -1.139964970040000e0 -1.137226533920000e0
-1.133239150900000e0 -1.127937028740000e0 -1.121255259510000e0 -1.113130526070000e0
-1.103501895660000e0 -1.092311698660000e0 -1.079506490820000e0 -1.065038087950000e0
-1.048864664500000e0 -1.030951892380000e0 -1.011274099560000e0 -9.898154102790000e-1
-9.665708266050000e-1 -9.415471968729999e-1 -9.147640079629999e-1 -8.862539265470000e-1
-8.560630064540000e-1 -8.242504718439999e-1 -7.908879831340000e-1 -7.560583010180000e-1
-7.198532790330000e-1 -6.823711544040000e-1 -6.437131669750000e-1 -6.039796387500001e-1
-5.632657946760000e-1 -5.216578319070000e-1 -4.792300591740000e-1 -4.360443812210000e-1
-3.921540176720000e-1 -3.476142009490000e-1 -3.025037393940000e-1 -2.569628768980000e-1
-2.112549260230000e-1 -1.658618551740000e-1 -1.216276275850000e-1 -7.996718018310000e-2
-4.317035265570000e-2 -1.478611748760000e-2 -5.826150525249999e-4 -4.694434919250000e-5
0.000000000000000e0 0.000000000000000e0 0.000000000000000e0 0.000000000000000e0
0.000000000000000e0 0.000000000000000e0 0.000000000000000e0 0.000000000000000e0
0.000000000000000e0 0.000000000000000e0 0.000000000000000e0 0.000000000000000e0
0.000000000000000e0 0.000000000000000e0 0.000000000000000e0 0.000000000000000e0
0.000000000000000e0 0.000000000000000e0 0.000000000000000e0 0.000000000000000e0
0.000000000000000e0 0.000000000000000e0 0.000000000000000e0 0.000000000000000e0
0.000000000000000e0 0.000000000000000e0 0.000000000000000e0 0.000000000000000e0
0.000000000000000e0 0.000000000000000e0 0.000000000000000e0 0.000000000000000e0
0.000000000000000e0 0.000000000000000e0 0.000000000000000e0 0.000000000000000e0
0.000000000000000e0 0.000000000000000e0 0.000000000000000e0 0.000000000000000e0
0.000000000000000e0 0.000000000000000e0 0.000000000000000e0 0.000000000000000e0
0.000000000000000e0 0.000000000000000e0 0.000000000000000e0 0.000000000000000e0
0.000000000000000e0 0.000000000000000e0 0.000000000000000e0 0.000000000000000e0
0.000000000000000e0 0.000000000000000e0 0.000000000000000e0 0.000000000000000e0
0.000000000000000e0 0.000000000000000e0 0.000000000000000e0 0.000000000000000e0
0.000000000000000e0 0.000000000000000e0 0.000000000000000e0 0.000000000000000e0
0.000000000000000e0 0.000000000000000e0 0.000000000000000e0 0.000000000000000e0
0.000000000000000e0 0.000000000000000e0 0.000000000000000e0 0.000000000000000e0
0.000000000000000e0 0.000000000000000e0 0.000000000000000e0 0.000000000000000e0
0.000000000000000e0 0.000000000000000e0 0.000000000000000e0 0.000000000000000e0
0.000000000000000e0 0.000000000000000e0 0.000000000000000e0 0.000000000000000e0
0.000000000000000e0 0.000000000000000e0 0.000000000000000e0 0.000000000000000e0
0.000000000000000e0 0.000000000000000e0 0.000000000000000e0 0.000000000000000e0
0.000000000000000e0 0.000000000000000e0 0.000000000000000e0 0.000000000000000e0
0.000000000000000e0 0.000000000000000e0 0.000000000000000e0 0.000000000000000e0
0.000000000000000e0 0.000000000000000e0 0.000000000000000e0 0.000000000000000e0
0.000000000000000e0 0.000000000000000e0 0.000000000000000e0 0.000000000000000e0
0.000000000000000e0 0.000000000000000e0 0.000000000000000e0 0.000000000000000e0
0.000000000000000e0 0.000000000000000e0 0.000000000000000e0 0.000000000000000e0
0.000000000000000e0 0.000000000000000e0 0.000000000000000e0 0.000000000000000e0
0.000000000000000e0 0.000000000000000e0 0.000000000000000e0 0.000000000000000e0
0.000000000000000e0 0.000000000000000e0 0.000000000000000e0 0.000000000000000e0
0.000000000000000e0 0.000000000000000e0 0.000000000000000e0 0.000000000000000e0
0.000000000000000e0 0.000000000000000e0 0.000000000000000e0 0.000000000000000e0
0.000000000000000e0 0.000000000000000e0 0.000000000000000e0 0.000000000000000e0
0.000000000000000e0 0.000000000000000e0 0.000000000000000e0 0.000000000000000e0
0.000000000000000e0 0.000000000000000e0 0.000000000000000e0 0.000000000000000e0
0.000000000000000e0 0.000000000000000e0 0.000000000000000e0 0.000000000000000e0
0.000000000000000e0 0.000000000000000e0 0.000000000000000e0 0.000000000000000e0
0.000000000000000e0 0.000000000000000e0 0.000000000000000e0 0.000000000000000e0
0.000000000000000e0 0.000000000000000e0 0.000000000000000e0 0.000000000000000e0
0.000000000000000e0 0.000000000000000e0 0.000000000000000e0 0.000000000000000e0
0.000000000000000e0 0.000000000000000e0 0.000000000000000e0 0.000000000000000e0
0.000000000000000e0 0.000000000000000e0 0.000000000000000e0 0.000000000000000e0
0.000000000000000e0 0.000000000000000e0 0.000000000000000e0 0.000000000000000e0
0.000000000000000e0 0.000000000000000e0 0.000000000000000e0 0.000000000000000e0
0.000000000000000e0 0.000000000000000e0 0.000000000000000e0 0.000000000000000e0
0.000000000000000e0 0.000000000000000e0 0.000000000000000e0 0.000000000000000e0
0.000000000000000e0 0.000000000000000e0 0.000000000000000e0 0.000000000000000e0
0.000000000000000e0 0.000000000000000e0 0.000000000000000e0 0.000000000000000e0
0.000000000000000e0 0.000000000000000e0 0.000000000000000e0 0.000000000000000e0
0.000000000000000e0 0.000000000000000e0 0.000000000000000e0 0.000000000000000e0
0.000000000000000e0 0.000000000000000e0 0.000000000000000e0 0.000000000000000e0
0.000000000000000e0 0.000000000000000e0 0.000000000000000e0 0.000000000000000e0
0.000000000000000e0 0.000000000000000e0 0.000000000000000e0 0.000000000000000e0
0.000000000000000e0 0.000000000000000e0 0.000000000000000e0 0.000000000000000e0
0.000000000000000e0 0.000000000000000e0 0.000000000000000e0 0.000000000000000e0
0.000000000000000e0 0.000000000000000e0 0.000000000000000e0 0.000000000000000e0
0.000000000000000e0 0.000000000000000e0 0.000000000000000e0 0.000000000000000e0
0.000000000000000e0 0.000000000000000e0 0.000000000000000e0 0.000000000000000e0
0.000000000000000e0 0.000000000000000e0 0.000000000000000e0 0.000000000000000e0
0.000000000000000e0 0.000000000000000e0 0.000000000000000e0 0.000000000000000e0
0.000000000000000e0 0.000000000000000e0 0.000000000000000e0 0.000000000000000e0
0.000000000000000e0 0.000000000000000e0 0.000000000000000e0 0.000000000000000e0
0.000000000000000e0 0.000000000000000e0 0.000000000000000e0 0.000000000000000e0
0.000000000000000e0 0.000000000000000e0 0.000000000000000e0 0.000000000000000e0
0.000000000000000e0 0.000000000000000e0 0.000000000000000e0 0.000000000000000e0
0.000000000000000e0 0.000000000000000e0 0.000000000000000e0 0.000000000000000e0
0.000000000000000e0 0.000000000000000e0 0.000000000000000e0 0.000000000000000e0
0.000000000000000e0 0.000000000000000e0 0.000000000000000e0 0.000000000000000e0
0.000000000000000e0 0.000000000000000e0 0.000000000000000e0 0.000000000000000e0
0.000000000000000e0 0.000000000000000e0 0.000000000000000e0
</PP_BETA.1>
<PP_BETA.2 index="2" label="3P" angular_momentum="0" cutoff_radius_index="627" cutoff_radius="1.000000000000e1" ultrasoft_cutoff_radius="1.700000000000e0">
0.000000000000000e0 4.559820345489999e-6 9.199080818510001e-6 1.385002383680000e-5
1.866918885170000e-5 2.355807435610000e-5 2.847831747350000e-5 3.355428334480000e-5
3.852771546510000e-5 4.395085629710000e-5 4.900428122819999e-5 5.467207124830001e-5
5.982253172310000e-5 6.560448350530001e-5 7.110808197940001e-5 7.709092205080001e-5
8.257009872650000e-5 8.883137035290000e-5 9.483536024240001e-5 1.009333029460000e-4
1.070991924040000e-4 1.134433299280000e-4 1.200909166820000e-4 1.266589916300000e-4
1.330614308600000e-4 1.400949684710000e-4 1.468531623680000e-4 1.542197712010000e-4
1.608449319820000e-4 1.685118405030000e-4 1.757273169110000e-4 1.831731985620000e-4
1.910692883320000e-4 1.984350640840000e-4 2.067596479990000e-4 2.144699304810000e-4
2.227962954490001e-4 2.310727885520000e-4 2.393210192780000e-4 2.481921987210000e-4
2.567375562480001e-4 2.656531103530000e-4 2.746326977110000e-4 2.838985541000000e-4
2.932005845320000e-4 3.025661940420000e-4 3.123685065310000e-4 3.221267608790001e-4
3.319127739740000e-4 3.423280386130000e-4 3.523806027310000e-4 3.630709892480000e-4
3.736847724040000e-4 3.844401090500000e-4 3.954965108590000e-4 4.066559979220000e-4
4.180132522590001e-4 4.298789446360001e-4 4.412303803070000e-4 4.535924279830000e-4
4.654907684010000e-4 4.778956600820000e-4 4.907630895160001e-4 5.032910931060000e-4
5.163671239520000e-4 5.296270082280000e-4 5.429941852900001e-4 5.567682518280000e-4
5.707714207679999e-4 5.846517869860000e-4 5.992456082900000e-4 6.139219888370000e-4
6.286170142430000e-4 6.437446740610000e-4 6.592444790460000e-4 6.747564378170000e-4
6.907281374230000e-4 7.071296777820001e-4 7.229690919589999e-4 7.402046005570000e-4
7.569026336180000e-4 7.744757915810001e-4 7.917100001730000e-4 8.098080205180000e-4
8.278588284560001e-4 8.463423553120000e-4 8.651216918069998e-4 8.843407850900000e-4
9.035941677440000e-4 9.234054052710000e-4 9.434318078600000e-4 9.638773047970000e-4
9.847332055930000e-4 1.005619585040000e-3 1.027253263050000e-3 1.049001418430000e-3
1.071219134160000e-3 1.093692431140000e-3 1.116807536940000e-3 1.139865087720000e-3
1.163863968130000e-3 1.187782144710000e-3 1.212376646270000e-3 1.237257698870000e-3
1.262723516130000e-3 1.288380861300000e-3 1.314610478420000e-3 1.341290266720000e-3
1.368345362300000e-3 1.395955471050000e-3 1.423951513890000e-3 1.452446987630000e-3
1.481349409130000e-3 1.510799768420000e-3 1.540975471920000e-3 1.571015298860000e-3
1.602315625500000e-3 1.633698887020000e-3 1.665645469620000e-3 1.698288683670000e-3
1.731317957880000e-3 1.765013356700000e-3 1.799240739580000e-3 1.833918203710000e-3
1.869471252010000e-3 1.905302468460000e-3 1.941926798300000e-3 1.979162097990000e-3
2.016940601550000e-3 2.055318569300000e-3 2.094587172190000e-3 2.134222815240000e-3
2.174674072050000e-3 2.215739816960000e-3 2.257577868690000e-3 2.300117924490000e-3
2.343197725940000e-3 2.387257942680000e-3 2.431893788260000e-3 2.477272582480000e-3
2.523522725190000e-3 2.570479635180000e-3 2.618217988180000e-3 2.666777744250000e-3
2.716122945290000e-3 2.766379590240000e-3 2.817417753210000e-3 2.869306329010000e-3
2.922037269800000e-3 2.975798922960000e-3 3.030294900410000e-3 3.085809707590000e-3
3.142191569790000e-3 3.199603480170000e-3 3.257906694170000e-3 3.317198632900000e-3
3.377526377380000e-3 3.438846691530000e-3 3.501136236400000e-3 3.564651384869999e-3
3.628967350030000e-3 3.694646497690001e-3 3.761219962669999e-3 3.829008936180000e-3
3.897915223560000e-3 3.967941281860000e-3 4.039252105909999e-3 4.111621854910000e-3
4.185322881060000e-3 4.260216636899999e-3 4.336301776219999e-3 4.413833866090000e-3
4.492543077390000e-3 4.572530203780000e-3 4.654003168050000e-3 4.736725460260000e-3
4.820968697160000e-3 4.906442950200000e-3 4.993519923100001e-3 5.081984204359999e-3
5.171935860910000e-3 5.263399163240000e-3 5.356458513820001e-3 5.450981216180000e-3
5.547229539010000e-3 5.644877467939999e-3 5.744398842630000e-3 5.845500056310000e-3
5.948226345300000e-3 6.052849906730000e-3 6.159013534290000e-3 6.267159620210000e-3
6.377011769669999e-3 6.488743955830001e-3 6.602353931079998e-3 6.717810975249999e-3
6.835377398730000e-3 6.954735499589999e-3 7.076157903169999e-3 7.199672130699999e-3
7.325217744950001e-3 7.452859561630000e-3 7.582703670910000e-3 7.714649107220000e-3
7.848915539070001e-3 7.985318949250000e-3 8.124102725900000e-3 8.265194910580000e-3
8.408625626739997e-3 8.554543056160000e-3 8.702833222279999e-3 8.853634020159999e-3
9.007017657170000e-3 9.162928054399998e-3 9.321476248580002e-3 9.482680000949999e-3
9.646583856690000e-3 9.813290437819999e-3 9.982762946139999e-3 1.015505295080000e-2
1.033031459370000e-2 1.050842559010000e-2 1.068965013170000e-2 1.087380252850000e-2
1.106109330830000e-2 1.125159703960000e-2 1.144517582390000e-2 1.164210367360000e-2
1.184232248690000e-2 1.204586745030000e-2 1.225287940590000e-2 1.246335182880000e-2
1.267735284790000e-2 1.289495221360000e-2 1.311623143400000e-2 1.334119058040000e-2
1.356996373640000e-2 1.380255429260000e-2 1.403909009480000e-2 1.427954275440000e-2
1.452409966110000e-2 1.477271893260000e-2 1.502553869200000e-2 1.528260550120000e-2
1.554398710120000e-2 1.580974429510000e-2 1.607999970420000e-2 1.635478171110000e-2
1.663417676110000e-2 1.691825435980000e-2 1.720713704840000e-2 1.750084403390000e-2
1.779951247990000e-2 1.810316184780000e-2 1.841196452350000e-2 1.872589721840000e-2
1.904515047150000e-2 1.936974937910000e-2 1.969980439790000e-2 2.003538721730000e-2
2.037665615110000e-2 2.072360072050000e-2 2.107640273460000e-2 2.143514582290000e-2
2.179988684050000e-2 2.217076816350000e-2 2.254788201140000e-2 2.293132658360000e-2
2.332121956120000e-2 2.371765845210000e-2 2.412074996350000e-2 2.453062375490000e-2
2.494736749390000e-2 2.537113643180000e-2 2.580199742190000e-2 2.624011739620000e-2
2.668557741230000e-2 2.713852922930000e-2 2.759909879680000e-2 2.806737366140000e-2
2.854355206750000e-2 2.902768866410000e-2 2.951998900510000e-2 3.002054773640000e-2
3.052948738520000e-2 3.104702388870000e-2 3.157320274500000e-2 3.210824499140000e-2
3.265226540550001e-2 3.320541459540000e-2 3.376785802740000e-2 3.433974488220000e-2
3.492123472330000e-2 3.551248449280000e-2 3.611365575859999e-2 3.672492818830000e-2
3.734646200640000e-2 3.797842563210000e-2 3.862099564819999e-2 3.927435998590001e-2
3.993867961980000e-2 4.061415839020000e-2 4.130096954580001e-2 4.199931055500000e-2
4.270936356880000e-2 4.343134673750000e-2 4.416542762470000e-2 4.491183497050000e-2
4.567076658840000e-2 4.644242355810000e-2 4.722703719310000e-2 4.802480393420000e-2
4.883595571979999e-2 4.966071496430001e-2 5.049930257600001e-2 5.135196349980000e-2
5.221890346449999e-2 5.310040753090000e-2 5.399666772160000e-2 5.490796892160001e-2
5.583454368710000e-2 5.677665036630000e-2 5.773454517630000e-2 5.870850496080000e-2
5.969876726090000e-2 6.070564238070000e-2 6.172937888030000e-2 6.277026810109999e-2
6.382859419510000e-2 6.490464513439999e-2 6.599871844690000e-2 6.711111340370000e-2
6.824213519540000e-2 6.939208773619999e-2 7.056129614490001e-2 7.175006613739999e-2
7.295873756500000e-2 7.418762903389999e-2 7.543707793300001e-2 7.670742648150000e-2
7.799903089960001e-2 7.931221706480001e-2 8.064737102230001e-2 8.200483771200000e-2
8.338499180830000e-2 8.478821115479999e-2 8.621486674660000e-2 8.766535406620001e-2
8.914007189690000e-2 9.063939786030000e-2 9.216376099150001e-2 9.371355424980001e-2
9.528921395080001e-2 9.689115020380001e-2 9.851979923369999e-2 1.001755979220000e-1
1.018589997740000e-1 1.035704450970000e-1 1.053103998650000e-1 1.070793266410000e-1
1.088777003350000e-1 1.107060028030000e-1 1.125647169370000e-1 1.144543433160000e-1
1.163753824100000e-1 1.183283407500000e-1 1.203137448560000e-1 1.223321116970000e-1
1.243839789430000e-1 1.264698885320000e-1 1.285903878650000e-1 1.307460349540000e-1
1.329373985290000e-1 1.351650444470000e-1 1.374295643560000e-1 1.397315441860000e-1
1.420715809130000e-1 1.444502875530000e-1 1.468682718380000e-1 1.493261692190000e-1
1.518246025700000e-1 1.543642204660000e-1 1.569456715550000e-1 1.595696158660000e-1
1.622367206650000e-1 1.649476667770000e-1 1.677031350020000e-1 1.705038252700000e-1
1.733504408610000e-1 1.762436952720000e-1 1.791843069410000e-1 1.821730158530000e-1
1.852105496920000e-1 1.882976712460000e-1 1.914351284300000e-1 1.946236927730000e-1
1.978641394640000e-1 2.011572555430000e-1 2.045038278300000e-1 2.079046663730000e-1
2.113605786770000e-1 2.148723831190000e-1 2.184409061080000e-1 2.220669883530000e-1
2.257514687300000e-1 2.294952012840000e-1 2.332990452250000e-1 2.371638673400000e-1
2.410905411590000e-1 2.450799504760000e-1 2.491329795150000e-1 2.532505268090000e-1
2.574334890620000e-1 2.616827769310000e-1 2.659992981270000e-1 2.703839734900000e-1
2.748377218140000e-1 2.793614710890000e-1 2.839561466260000e-1 2.886226867190000e-1
2.933620224240000e-1 2.981750910080000e-1 3.030628315400000e-1 3.080261827120000e-1
3.130660813240000e-1 3.181834672720000e-1 3.233792752170000e-1 3.286544360540000e-1
3.340098816870000e-1 3.394465353050000e-1 3.449653130430000e-1 3.505671311250000e-1
3.562528869440000e-1 3.620234789510000e-1 3.678797851760000e-1 3.738226786610000e-1
3.798530147220000e-1 3.859716328030000e-1 3.921793559470000e-1 3.984769883000000e-1
4.048653128270000e-1 4.113450866710000e-1 4.179170449090000e-1 4.245818946900000e-1
4.313403081760000e-1 4.381929320529999e-1 4.451403711300000e-1 4.521831975360000e-1
4.593219361870000e-1 4.665570727250000e-1 4.738890423880000e-1 4.813182299110000e-1
4.888449646580000e-1 4.964695178119999e-1 5.041920963470000e-1 5.120128433380000e-1
5.199318252190000e-1 5.279490366120000e-1 5.360643886560000e-1 5.442777058979999e-1
5.525887218639999e-1 5.609970709560001e-1 5.695022869090000e-1 5.781037882840000e-1
5.868008826050000e-1 5.955927499560000e-1 6.044784421900000e-1 6.134568713050000e-1
6.225268037690000e-1 6.316868511000000e-1 6.409354635650000e-1 6.502709155520000e-1
6.596913052770001e-1 6.691945331950000e-1 6.787783040390000e-1 6.884401065910000e-1
6.981772059310000e-1 7.079866350810001e-1 7.178651760840000e-1 7.278093533200000e-1
7.378154179250000e-1 7.478793328030000e-1 7.579967630410001e-1 7.681630547900000e-1
7.783732263860000e-1 7.886219477730000e-1 7.989035272380000e-1 8.092118920680001e-1
8.195405736050001e-1 8.298826861209999e-1 8.402309114039999e-1 8.505774771840001e-1
8.609141372430001e-1 8.712321532690000e-1 8.815222715020001e-1 8.917747016029999e-1
9.019790969019999e-1 9.121245276910001e-1 9.221994619790001e-1 9.321917407759999e-1
9.420885516220000e-1 9.518764108530000e-1 9.615411292850000e-1 9.710677960689999e-1
9.804407493759999e-1 9.896435523619999e-1 9.986589649860001e-1 1.007468925480000e0
1.016054514880000e0 1.024395944210000e0 1.032472519830000e0 1.040262624860000e0
1.047743695870000e0 1.054892196590000e0 1.061683603780000e0 1.068092378830000e0
1.074091956480000e0 1.079654724680000e0 1.084752010250000e0 1.089354068940000e0
1.093430072450000e0 1.096948108140000e0 1.099875168100000e0 1.102177158710000e0
1.103818901000000e0 1.104764142390000e0 1.104975574390000e0 1.104414852630000e0
1.103042625690000e0 1.100818572780000e0 1.097701445860000e0 1.093649122650000e0
1.088618668980000e0 1.082566413060000e0 1.075448025320000e0 1.067218618130000e0
1.057832852770000e0 1.047245064440000e0 1.035409397230000e0 1.022279964340000e0
1.007811013490000e0 9.919571244740000e-1 9.746734149510001e-1 9.559157732580001e-1
9.356411144030000e-1 9.138076541229999e-1 8.903752145810000e-1 8.653055495369999e-1
8.385627018300001e-1 8.101133873980000e-1 7.799274080930000e-1 7.479780949140000e-1
7.142427881590000e-1 6.787033400359999e-1 6.413466618130000e-1 6.021652968390000e-1
5.611580311780000e-1 5.183305392089999e-1 4.736960642150000e-1 4.272761289420000e-1
3.791012889910000e-1 3.292119091830000e-1 2.776589795400000e-1 2.245049580600000e-1
1.698246399490000e-1 1.137060575810000e-1 5.625139691220000e-2 -2.422065355010000e-3
-6.218100890890001e-2 -1.228751153880000e-1 -1.843361038100000e-1 -2.463767823120000e-1
-3.087901071560000e-1 -3.713482766710000e-1 -4.338018601270000e-1 -4.958789872600001e-1
-5.572846151829999e-1 -6.176998921880000e-1 -6.767816596639999e-1 -7.341621110620000e-1
-7.894486764849999e-1 -8.422241600610000e-1 -8.920472289659999e-1 -9.384533159760000e-1
-9.809560562100000e-1 -1.019049383960000e0 -1.052210452480000e0 -1.079903572950000e0
-1.101585414450000e0 -1.116711755270000e0 -1.124746124300000e0 -1.125170746300000e0
-1.117500252200000e0 -1.101298691080000e0 -1.076200421780000e0 -1.041935508560000e0
-9.983602198090001e-1 -9.454931808080001e-1 -8.835575292160000e-1 -8.130291154569999e-1
-7.346901742030000e-1 -6.496869990530000e-1 -5.595886615420000e-1 -4.664416584360000e-1
-3.728121116940000e-1 -2.818024510900000e-1 -1.970226962920000e-1 -1.224874236140000e-1
-6.239014793890000e-2 -2.074450537530000e-2 -3.084981717760000e-4 -5.792264328170001e-4
0.000000000000000e0 0.000000000000000e0 0.000000000000000e0 0.000000000000000e0
0.000000000000000e0 0.000000000000000e0 0.000000000000000e0 0.000000000000000e0
0.000000000000000e0 0.000000000000000e0 0.000000000000000e0 0.000000000000000e0
0.000000000000000e0 0.000000000000000e0 0.000000000000000e0 0.000000000000000e0
0.000000000000000e0 0.000000000000000e0 0.000000000000000e0 0.000000000000000e0
0.000000000000000e0 0.000000000000000e0 0.000000000000000e0 0.000000000000000e0
0.000000000000000e0 0.000000000000000e0 0.000000000000000e0 0.000000000000000e0
0.000000000000000e0 0.000000000000000e0 0.000000000000000e0 0.000000000000000e0
0.000000000000000e0 0.000000000000000e0 0.000000000000000e0 0.000000000000000e0
0.000000000000000e0 0.000000000000000e0 0.000000000000000e0 0.000000000000000e0
0.000000000000000e0 0.000000000000000e0 0.000000000000000e0 0.000000000000000e0
0.000000000000000e0 0.000000000000000e0 0.000000000000000e0 0.000000000000000e0
0.000000000000000e0 0.000000000000000e0 0.000000000000000e0 0.000000000000000e0
0.000000000000000e0 0.000000000000000e0 0.000000000000000e0 0.000000000000000e0
0.000000000000000e0 0.000000000000000e0 0.000000000000000e0 0.000000000000000e0
0.000000000000000e0 0.000000000000000e0 0.000000000000000e0 0.000000000000000e0
0.000000000000000e0 0.000000000000000e0 0.000000000000000e0 0.000000000000000e0
0.000000000000000e0 0.000000000000000e0 0.000000000000000e0 0.000000000000000e0
0.000000000000000e0 0.000000000000000e0 0.000000000000000e0 0.000000000000000e0
0.000000000000000e0 0.000000000000000e0 0.000000000000000e0 0.000000000000000e0
0.000000000000000e0 0.000000000000000e0 0.000000000000000e0 0.000000000000000e0
0.000000000000000e0 0.000000000000000e0 0.000000000000000e0 0.000000000000000e0
0.000000000000000e0 0.000000000000000e0 0.000000000000000e0 0.000000000000000e0
0.000000000000000e0 0.000000000000000e0 0.000000000000000e0 0.000000000000000e0
0.000000000000000e0 0.000000000000000e0 0.000000000000000e0 0.000000000000000e0
0.000000000000000e0 0.000000000000000e0 0.000000000000000e0 0.000000000000000e0
0.000000000000000e0 0.000000000000000e0 0.000000000000000e0 0.000000000000000e0
0.000000000000000e0 0.000000000000000e0 0.000000000000000e0 0.000000000000000e0
0.000000000000000e0 0.000000000000000e0 0.000000000000000e0 0.000000000000000e0
0.000000000000000e0 0.000000000000000e0 0.000000000000000e0 0.000000000000000e0
0.000000000000000e0 0.000000000000000e0 0.000000000000000e0 0.000000000000000e0
0.000000000000000e0 0.000000000000000e0 0.000000000000000e0 0.000000000000000e0
0.000000000000000e0 0.000000000000000e0 0.000000000000000e0 0.000000000000000e0
0.000000000000000e0 0.000000000000000e0 0.000000000000000e0 0.000000000000000e0
0.000000000000000e0 0.000000000000000e0 0.000000000000000e0 0.000000000000000e0
0.000000000000000e0 0.000000000000000e0 0.000000000000000e0 0.000000000000000e0
0.000000000000000e0 0.000000000000000e0 0.000000000000000e0 0.000000000000000e0
0.000000000000000e0 0.000000000000000e0 0.000000000000000e0 0.000000000000000e0
0.000000000000000e0 0.000000000000000e0 0.000000000000000e0 0.000000000000000e0
0.000000000000000e0 0.000000000000000e0 0.000000000000000e0 0.000000000000000e0
0.000000000000000e0 0.000000000000000e0 0.000000000000000e0 0.000000000000000e0
0.000000000000000e0 0.000000000000000e0 0.000000000000000e0 0.000000000000000e0
0.000000000000000e0 0.000000000000000e0 0.000000000000000e0 0.000000000000000e0
0.000000000000000e0 0.000000000000000e0 0.000000000000000e0 0.000000000000000e0
0.000000000000000e0 0.000000000000000e0 0.000000000000000e0 0.000000000000000e0
0.000000000000000e0 0.000000000000000e0 0.000000000000000e0 0.000000000000000e0
0.000000000000000e0 0.000000000000000e0 0.000000000000000e0 0.000000000000000e0
0.000000000000000e0 0.000000000000000e0 0.000000000000000e0 0.000000000000000e0
0.000000000000000e0 0.000000000000000e0 0.000000000000000e0 0.000000000000000e0
0.000000000000000e0 0.000000000000000e0 0.000000000000000e0 0.000000000000000e0
0.000000000000000e0 0.000000000000000e0 0.000000000000000e0 0.000000000000000e0
0.000000000000000e0 0.000000000000000e0 0.000000000000000e0 0.000000000000000e0
0.000000000000000e0 0.000000000000000e0 0.000000000000000e0 0.000000000000000e0
0.000000000000000e0 0.000000000000000e0 0.000000000000000e0 0.000000000000000e0
0.000000000000000e0 0.000000000000000e0 0.000000000000000e0 0.000000000000000e0
0.000000000000000e0 0.000000000000000e0 0.000000000000000e0 0.000000000000000e0
0.000000000000000e0 0.000000000000000e0 0.000000000000000e0 0.000000000000000e0
0.000000000000000e0 0.000000000000000e0 0.000000000000000e0 0.000000000000000e0
0.000000000000000e0 0.000000000000000e0 0.000000000000000e0 0.000000000000000e0
0.000000000000000e0 0.000000000000000e0 0.000000000000000e0 0.000000000000000e0
0.000000000000000e0 0.000000000000000e0 0.000000000000000e0 0.000000000000000e0
0.000000000000000e0 0.000000000000000e0 0.000000000000000e0 0.000000000000000e0
0.000000000000000e0 0.000000000000000e0 0.000000000000000e0 0.000000000000000e0
0.000000000000000e0 0.000000000000000e0 0.000000000000000e0 0.000000000000000e0
0.000000000000000e0 0.000000000000000e0 0.000000000000000e0 0.000000000000000e0
0.000000000000000e0 0.000000000000000e0 0.000000000000000e0 0.000000000000000e0
0.000000000000000e0 0.000000000000000e0 0.000000000000000e0 0.000000000000000e0
0.000000000000000e0 0.000000000000000e0 0.000000000000000e0 0.000000000000000e0
0.000000000000000e0 0.000000000000000e0 0.000000000000000e0 0.000000000000000e0
0.000000000000000e0 0.000000000000000e0 0.000000000000000e0 0.000000000000000e0
0.000000000000000e0 0.000000000000000e0 0.000000000000000e0 0.000000000000000e0
0.000000000000000e0 0.000000000000000e0 0.000000000000000e0
</PP_BETA.2>
<PP_BETA.3 index="3" label="&lt;/" angular_momentum="1" cutoff_radius_index="627" cutoff_radius="0.000000000000e0" ultrasoft_cutoff_radius="0.000000000000e0">
0.000000000000000e0 -4.252335771759999e-12 3.047836009440000e-9 2.719606046910000e-9
2.712042794329999e-9 2.659695377249999e-9 2.598343682620000e-9 2.523442436840000e-9
2.434994977550001e-9 2.331890555120000e-9 2.213819445960000e-9 2.080569388860000e-9
1.929950391880000e-9 1.762851266020000e-9 1.577350071320000e-9 1.372658611500000e-9
1.149184724840000e-9 9.045747438900001e-10 6.380157675110004e-10 3.507851472130000e-10
3.736595543450001e-11 -2.985739352300000e-10 -6.605301843040000e-10 -1.047200554920000e-9
-1.466538156680000e-9 -1.909803889890000e-9 -2.385907127280000e-9 -2.892364543649999e-9
-3.430826966770000e-9 -4.008081801120000e-9 -4.613046526130000e-9 -5.262737619969999e-9
-5.945760457740001e-9 -6.671498714740000e-9 -7.439104630050000e-9 -8.249247805269999e-9
-9.104919541839999e-9 -1.000691268510000e-8 -1.096063256780000e-8 -1.196167594010000e-8
-1.301965522550000e-8 -1.413010452350000e-8 -1.529601934900000e-8 -1.652794389730000e-8
-1.781629950430000e-8 -1.917134335160000e-8 -2.059026818920000e-8 -2.208638892079999e-8
-2.364719169250000e-8 -2.528353975370000e-8 -2.700157863859999e-8 -2.880413805720000e-8
-3.067846989940000e-8 -3.265336480720000e-8 -3.470974656740000e-8 -3.686616338720001e-8
-3.911627087350000e-8 -4.147627338280000e-8 -4.392606301320000e-8 -4.650297610109999e-8
-4.918285384580001e-8 -5.198561636479999e-8 -5.490249027949999e-8 -5.796025162060000e-8
-6.113658725430001e-8 -6.445912642509999e-8 -6.791314629100000e-8 -7.152659397150001e-8
-7.528604239709999e-8 -7.920450173690002e-8 -8.328513348169999e-8 -8.754303295630001e-8
-9.196691004129999e-8 -9.658539409440001e-8 -1.013844711600000e-7 -1.063785789440000e-7
-1.116007185170000e-7 -1.169980684730000e-7 -1.226423286200000e-7 -1.285030612460000e-7
-1.346030317560000e-7 -1.409443113120000e-7 -1.475376916010000e-7 -1.544045269720000e-7
-1.615259525090000e-7 -1.689453671270000e-7 -1.766487775450000e-7 -1.846558145330000e-7
-1.929796552910000e-7 -2.016275620149999e-7 -2.106113201700000e-7 -2.199454320250000e-7
-2.296323301920000e-7 -2.397088218660000e-7 -2.501743853390000e-7 -2.610221029840000e-7
-2.722950462310000e-7 -2.840205283520000e-7 -2.961622861100000e-7 -3.087790386350000e-7
-3.218845816540000e-7 -3.354708139960000e-7 -3.495800163130000e-7 -3.642263587930000e-7
-3.794132353180001e-7 -3.951796717660001e-7 -4.115318121240001e-7 -4.285033459519999e-7
-4.461026902680000e-7 -4.643633573630000e-7 -4.832914800640000e-7 -5.029554718010000e-7
-5.233095521050001e-7 -5.444371432150000e-7 -5.663644994689999e-7 -5.890546284170000e-7
-6.126286442320000e-7 -6.370440174669999e-7 -6.623637275060002e-7 -6.886182300689998e-7
-7.158197914500000e-7 -7.440335523960000e-7 -7.732672409399999e-7 -8.035727129220000e-7
-8.349841723550002e-7 -8.675399210889999e-7 -9.012696804690002e-7 -9.362277841339999e-7
-9.724603099699999e-7 -1.009993964970000e-6 -1.048900586410000e-6 -1.089198593610000e-6
-1.130953954120000e-6 -1.174212905280000e-6 -1.219040468220000e-6 -1.265469328310000e-6
-1.313567064560000e-6 -1.363392367760000e-6 -1.415007842210000e-6 -1.468470602110000e-6
-1.523839901760000e-6 -1.581201858530000e-6 -1.640594751720000e-6 -1.702115491030000e-6
-1.765839243620000e-6 -1.831805569730000e-6 -1.900154251520000e-6 -1.970915511340000e-6
-2.044177323520000e-6 -2.120059973330000e-6 -2.198623771860000e-6 -2.279983773290000e-6
-2.364209165560001e-6 -2.451411403980000e-6 -2.541724455830000e-6 -2.635191789890000e-6
-2.731984998430000e-6 -2.832188654179999e-6 -2.935908396830000e-6 -3.043312050700000e-6
-3.154467746620000e-6 -3.269550865600000e-6 -3.388672366720000e-6 -3.511984510060000e-6
-3.639620308250000e-6 -3.771750407059999e-6 -3.908494300180000e-6 -4.050048755170000e-6
-4.196541750280000e-6 -4.348193380790000e-6 -4.505119469109999e-6 -4.667559436990000e-6
-4.835661252080000e-6 -5.009633991969999e-6 -5.189703902889999e-6 -5.376022613260000e-6
-5.568894326750000e-6 -5.768405688760001e-6 -5.974971411840001e-6 -6.188633749150001e-6
-6.409815529960000e-6 -6.638645744860002e-6 -6.875450163940000e-6 -7.120482443360000e-6
-7.374047622430000e-6 -7.636402141740001e-6 -7.907850269719998e-6 -8.188774267020001e-6
-8.479387907619998e-6 -8.780112551570001e-6 -9.091257370520001e-6 -9.413167638950002e-6
-9.746259661840000e-6 -1.009085661050000e-5 -1.044738295590000e-5 -1.081628696740000e-5
-1.119788148420000e-5 -1.159273613110000e-5 -1.200120193800000e-5 -1.242381114680000e-5
-1.286097067230000e-5 -1.331328632910000e-5 -1.378116826820000e-5 -1.426522016120000e-5
-1.476596980820000e-5 -1.528399267450000e-5 -1.581985439220000e-5 -1.637423353620000e-5
-1.694767213620000e-5 -1.754086520830000e-5 -1.815454063320000e-5 -1.878927538290000e-5
-1.944591396540000e-5 -2.012512316080000e-5 -2.082771411500000e-5 -2.155444566750000e-5
-2.230619645140000e-5 -2.308376972520000e-5 -2.388809433600000e-5 -2.472003380730000e-5
-2.558055083170000e-5 -2.647064923700000e-5 -2.739130538810000e-5 -2.834354485080000e-5
-2.932848587950000e-5 -3.034724321810001e-5 -3.140091191190000e-5 -3.249077308270000e-5
-3.361797577890000e-5 -3.478384298730001e-5 -3.598967683910001e-5 -3.723683651730000e-5
-3.852673776920001e-5 -3.986083952410000e-5 -4.124064863359999e-5 -4.266768735209999e-5
-4.414362351480000e-5 -4.567007739509999e-5 -4.724878884349999e-5 -4.888154410490000e-5
-5.057015378809999e-5 -5.231656562090001e-5 -5.412270493590000e-5 -5.599060248819999e-5
-5.792243496270000e-5 -5.992028380070000e-5 -6.198643807880000e-5 -6.412323763540000e-5
-6.633307185590000e-5 -6.861840573690001e-5 -7.098184598940000e-5 -7.342602991620000e-5
-7.595368889929999e-5 -7.856772383190000e-5 -8.127098303900000e-5 -8.406658579190001e-5
-8.695761774220001e-5 -8.994735006870000e-5 -9.303913382030000e-5 -9.623643411990001e-5
-9.954286216840000e-5 -1.029620882420000e-4 -1.064979927440000e-4 -1.101545149910000e-4
-1.139357491210000e-4 -1.178459512010000e-4 -1.218895364010000e-4 -1.260709406570000e-4
-1.303949866100000e-4 -1.348663987290000e-4 -1.394902450370000e-4 -1.442717032550000e-4
-1.492161180490000e-4 -1.543290369220000e-4 -1.596161892740000e-4 -1.650834511540000e-4
-1.707370313510000e-4 -1.765831526600000e-4 -1.826284564340000e-4 -1.888796185730000e-4
-1.953437138300000e-4 -2.020279178380000e-4 -2.089397220280000e-4 -2.160868782880000e-4
-2.234773445070000e-4 -2.311194273890000e-4 -2.390216142820000e-4 -2.471927878760000e-4
-2.556420665870000e-4 -2.643788843980000e-4 -2.734129989850000e-4 -2.827545534170000e-4
-2.924138851920000e-4 -3.024019275250000e-4 -3.127296771610000e-4 -3.234087807470000e-4
-3.344511310910000e-4 -3.458690556430000e-4 -3.576752804020000e-4 -3.698830155810000e-4
-3.825058877470000e-4 -3.955579713950001e-4 -4.090537944450000e-4 -4.230085090290000e-4
-4.374375969900001e-4 -4.523571836140000e-4 -4.677839445430000e-4 -4.837350017199999e-4
-5.002282447280001e-4 -5.172819848870001e-4 -5.349152808740000e-4 -5.531477716860000e-4
-5.719997721199999e-4 -5.914923374669999e-4 -6.116471225150000e-4 -6.324866615199999e-4
-6.540340933390000e-4 -6.763135143950000e-4 -6.993496474840001e-4 -7.231682390130000e-4
-7.477957496330000e-4 -7.732596361230000e-4 -7.995882452250001e-4 -8.268108987840000e-4
-8.549578703029999e-4 -8.840605071210000e-4 -9.141512524760000e-4 -9.452634671460000e-4
-9.774318866500000e-4 -1.010692263590000e-3 -1.045081573630000e-3 -1.080638045160000e-3
-1.117401341070000e-3 -1.155412179510000e-3 -1.194712971060000e-3 -1.235347284580000e-3
-1.277360364750000e-3 -1.320798896650000e-3 -1.365711117090000e-3 -1.412146951770000e-3
-1.460157997160000e-3 -1.509797563930000e-3 -1.561120777280000e-3 -1.614184697410000e-3
-1.669048122650000e-3 -1.725772085610000e-3 -1.784419418740000e-3 -1.845055345570000e-3
-1.907747037300000e-3 -1.972564080080000e-3 -2.039578399010000e-3 -2.108864280480000e-3
-2.180498534940000e-3 -2.254560655500000e-3 -2.331132624980000e-3 -2.410299407250000e-3
-2.492148615520000e-3 -2.576771017040000e-3 -2.664260250600000e-3 -2.754713266800000e-3
-2.848230115760000e-3 -2.944914394170000e-3 -3.044873003330000e-3 -3.148216623760000e-3
-3.255059424470000e-3 -3.365519669810000e-3 -3.479719408280000e-3 -3.597784842980000e-3
-3.719846463120000e-3 -3.846039035070000e-3 -3.976501949480000e-3 -4.111379203609999e-3
-4.250819692159999e-3 -4.394977146290000e-3 -4.544010664180000e-3 -4.698084483940001e-3
-4.857368462540000e-3 -5.022038020160000e-3 -5.192274628420001e-3 -5.368265560349999e-3
-5.550204593819999e-3 -5.738291867839999e-3 -5.932734132429999e-3 -6.133745190880000e-3
-6.341545811180000e-3 -6.556364230910000e-3 -6.778436264230001e-3 -7.008005479269999e-3
-7.245323692910000e-3 -7.490650921519999e-3 -7.744255986480000e-3 -8.006416506260001e-3
-8.277419312410000e-3 -8.557560787269999e-3 -8.847147114100000e-3 -9.146494573550001e-3
-9.455929890090001e-3 -9.775790627219999e-3 -1.010642545380000e-2 -1.044819449350000e-2
-1.080146975690000e-2 -1.116663552940000e-2 -1.154408863410000e-2 -1.193423901100000e-2
-1.233750987790000e-2 -1.275433852250000e-2 -1.318517642590000e-2 -1.363048967960000e-2
-1.409075985890000e-2 -1.456648397170000e-2 -1.505817533200000e-2 -1.556636385270000e-2
-1.609159666960000e-2 -1.663443862770000e-2 -1.719547280050000e-2 -1.777530110150000e-2
-1.837454480000000e-2 -1.899384526310000e-2 -1.963386418510000e-2 -2.029528476690000e-2
-2.097881178270000e-2 -2.168517265530000e-2 -2.241511784990000e-2 -2.316942181630000e-2
-2.394888327390000e-2 -2.475432650050000e-2 -2.558660150490000e-2 -2.644658515430000e-2
-2.733518175510000e-2 -2.825332395240000e-2 -2.920197330740000e-2 -3.018212149530000e-2
-3.119479070070001e-2 -3.224103480320000e-2 -3.332193998180000e-2 -3.443862590720000e-2
-3.559224621419999e-2 -3.678398983150000e-2 -3.801508163600000e-2 -3.928678338600000e-2
-4.060039493560000e-2 -4.195725481240000e-2 -4.335874150720000e-2 -4.480627426190001e-2
-4.630131424460000e-2 -4.784536523550001e-2 -4.943997505720000e-2 -5.108673617390000e-2
-5.278728708650000e-2 -5.454331292400000e-2 -5.635654689480000e-2 -5.822877106180000e-2
-6.016181725810000e-2 -6.215756840050000e-2 -6.421795921390000e-2 -6.634497730970001e-2
-6.854066413190001e-2 -7.080711598490000e-2 -7.314648479879999e-2 -7.556097912839999e-2
-7.805286506870001e-2 -8.062446687800000e-2 -8.327816802080001e-2 -8.601641169320001e-2
-8.884170162420000e-2 -9.175660263110000e-2 -9.476374126250001e-2 -9.786580625250000e-2
-1.010655487770000e-1 -1.043657831490000e-1 -1.077693864970000e-1 -1.112792995010000e-1
-1.148985258010000e-1 -1.186301323440000e-1 -1.224772488010000e-1 -1.264430673200000e-1
-1.305308419450000e-1 -1.347438878270000e-1 -1.390855802740000e-1 -1.435593537160000e-1
-1.481687002570000e-1 -1.529171682680000e-1 -1.578083602610000e-1 -1.628459310980000e-1
-1.680335857040000e-1 -1.733750757460000e-1 -1.788741977180000e-1 -1.845347884700000e-1
-1.903607225960000e-1 -1.963559073430000e-1 -2.025242790860000e-1 -2.088697977940000e-1
-2.153964418850000e-1 -2.221082025570000e-1 -2.290090772200000e-1 -2.361030627950000e-1
-2.433941483830000e-1 -2.508863072520000e-1 -2.585834879950000e-1 -2.664896060110000e-1
-2.746085328700000e-1 -2.829440863650000e-1 -2.915000189770000e-1 -3.002800060670000e-1
-3.092876329590000e-1 -3.185263816820000e-1 -3.279996163470000e-1 -3.377105682250000e-1
-3.476623196140000e-1 -3.578577870040000e-1 -3.682997030590000e-1 -3.789905984340000e-1
-3.899327813010000e-1 -4.011283176470000e-1 -4.125790090090000e-1 -4.242863702640000e-1
-4.362516060070000e-1 -4.484755860530000e-1 -4.609588199080000e-1 -4.737014300290000e-1
-4.867031247140000e-1 -4.999631690350000e-1 -5.134803555950000e-1 -5.272529737810000e-1
-5.412787782110000e-1 -5.555549559450000e-1 -5.700780931200001e-1 -5.848441397000000e-1
-5.998483742400000e-1 -6.150853666040001e-1 -6.305489400520000e-1 -6.462321320670000e-1
-6.621271538440000e-1 -6.782253485910000e-1 -6.945171479650000e-1 -7.109920279290000e-1
-7.276384612870000e-1 -7.444438700219999e-1 -7.613945740719999e-1 -7.784757384710001e-1
-7.956713172340000e-1 -8.129639944519999e-1 -8.303351213810000e-1 -8.477646497589999e-1
-8.652310604720000e-1 -8.827112864220000e-1 -9.001806306359999e-1 -9.176126761790000e-1
-9.349791904560000e-1 -9.522500198490000e-1 -9.693929765869999e-1 -9.863737155430000e-1
-1.003155600930000e0 -1.019699562090000e0 -1.035963938920000e0 -1.051904314970000e0
-1.067473341210000e0 -1.082620548570000e0 -1.097292152730000e0 -1.111430852410000e0
-1.124975624050000e0 -1.137861518930000e0 -1.150019465870000e0 -1.161376090380000e0
-1.171853556680000e0 -1.181369447250000e0 -1.189836692350000e0 -1.197163569450000e0
-1.203253791080000e0 -1.208006708410000e0 -1.211317657080000e0 -1.213078478630000e0
-1.213178254330000e0 -1.211504290050000e0 -1.207943396460000e0 -1.202383507930000e0
-1.194715685900000e0 -1.184836548560000e0 -1.172651164280000e0 -1.158076435760000e0
-1.141044986430000e0 -1.121509537220000e0 -1.099447730590000e0 -1.074867314340000e0
-1.047811542520000e0 -1.018364578010000e0 -9.866565928320000e-1 -9.528681550090001e-1
-9.172333639600000e-1 -8.800410541140000e-1 -8.416332304139999e-1 -8.023997415150001e-1
-7.627680523680000e-1 -7.231868720720001e-1 -6.841023704040000e-1 -6.459258342920000e-1
-6.089919666760000e-1 -5.735077431180001e-1 -5.394930013700000e-1 -5.067160039050000e-1
-4.746304449280000e-1 -4.423252675900001e-1 -4.085058977650000e-1 -3.715360171520000e-1
-3.295840541880000e-1 -2.809398400590000e-1 -2.245969702700000e-1 -1.612353177610000e-1
-9.481983300950001e-2 -3.487350024480000e-2 -1.874407503840000e-3 2.514759594210000e-4
0.000000000000000e0 0.000000000000000e0 0.000000000000000e0 0.000000000000000e0
0.000000000000000e0 0.000000000000000e0 0.000000000000000e0 0.000000000000000e0
0.000000000000000e0 0.000000000000000e0 0.000000000000000e0 0.000000000000000e0
0.000000000000000e0 0.000000000000000e0 0.000000000000000e0 0.000000000000000e0
0.000000000000000e0 0.000000000000000e0 0.000000000000000e0 0.000000000000000e0
0.000000000000000e0 0.000000000000000e0 0.000000000000000e0 0.000000000000000e0
0.000000000000000e0 0.000000000000000e0 0.000000000000000e0 0.000000000000000e0
0.000000000000000e0 0.000000000000000e0 0.000000000000000e0 0.000000000000000e0
0.000000000000000e0 0.000000000000000e0 0.000000000000000e0 0.000000000000000e0
0.000000000000000e0 0.000000000000000e0 0.000000000000000e0 0.000000000000000e0
0.000000000000000e0 0.000000000000000e0 0.000000000000000e0 0.000000000000000e0
0.000000000000000e0 0.000000000000000e0 0.000000000000000e0 0.000000000000000e0
0.000000000000000e0 0.000000000000000e0 0.000000000000000e0 0.000000000000000e0
0.000000000000000e0 0.000000000000000e0 0.000000000000000e0 0.000000000000000e0
0.000000000000000e0 0.000000000000000e0 0.000000000000000e0 0.000000000000000e0
0.000000000000000e0 0.000000000000000e0 0.000000000000000e0 0.000000000000000e0
0.000000000000000e0 0.000000000000000e0 0.000000000000000e0 0.000000000000000e0
0.000000000000000e0 0.000000000000000e0 0.000000000000000e0 0.000000000000000e0
0.000000000000000e0 0.000000000000000e0 0.000000000000000e0 0.000000000000000e0
0.000000000000000e0 0.000000000000000e0 0.000000000000000e0 0.000000000000000e0
0.000000000000000e0 0.000000000000000e0 0.000000000000000e0 0.000000000000000e0
0.000000000000000e0 0.000000000000000e0 0.000000000000000e0 0.000000000000000e0
0.000000000000000e0 0.000000000000000e0 0.000000000000000e0 0.000000000000000e0
0.000000000000000e0 0.000000000000000e0 0.000000000000000e0 0.000000000000000e0
0.000000000000000e0 0.000000000000000e0 0.000000000000000e0 0.000000000000000e0
0.000000000000000e0 0.000000000000000e0 0.000000000000000e0 0.000000000000000e0
0.000000000000000e0 0.000000000000000e0 0.000000000000000e0 0.000000000000000e0
0.000000000000000e0 0.000000000000000e0 0.000000000000000e0 0.000000000000000e0
0.000000000000000e0 0.000000000000000e0 0.000000000000000e0 0.000000000000000e0
0.000000000000000e0 0.000000000000000e0 0.000000000000000e0 0.000000000000000e0
0.000000000000000e0 0.000000000000000e0 0.000000000000000e0 0.000000000000000e0
0.000000000000000e0 0.000000000000000e0 0.000000000000000e0 0.000000000000000e0
0.000000000000000e0 0.000000000000000e0 0.000000000000000e0 0.000000000000000e0
0.000000000000000e0 0.000000000000000e0 0.000000000000000e0 0.000000000000000e0
0.000000000000000e0 0.000000000000000e0 0.000000000000000e0 0.000000000000000e0
0.000000000000000e0 0.000000000000000e0 0.000000000000000e0 0.000000000000000e0
0.000000000000000e0 0.000000000000000e0 0.000000000000000e0 0.000000000000000e0
0.000000000000000e0 0.000000000000000e0 0.000000000000000e0 0.000000000000000e0
0.000000000000000e0 0.000000000000000e0 0.000000000000000e0 0.000000000000000e0
0.000000000000000e0 0.000000000000000e0 0.000000000000000e0 0.000000000000000e0
0.000000000000000e0 0.000000000000000e0 0.000000000000000e0 0.000000000000000e0
0.000000000000000e0 0.000000000000000e0 0.000000000000000e0 0.000000000000000e0
0.000000000000000e0 0.000000000000000e0 0.000000000000000e0 0.000000000000000e0
0.000000000000000e0 0.000000000000000e0 0.000000000000000e0 0.000000000000000e0
0.000000000000000e0 0.000000000000000e0 0.000000000000000e0 0.000000000000000e0
0.000000000000000e0 0.000000000000000e0 0.000000000000000e0 0.000000000000000e0
0.000000000000000e0 0.000000000000000e0 0.000000000000000e0 0.000000000000000e0
0.000000000000000e0 0.000000000000000e0 0.000000000000000e0 0.000000000000000e0
0.000000000000000e0 0.000000000000000e0 0.000000000000000e0 0.000000000000000e0
0.000000000000000e0 0.000000000000000e0 0.000000000000000e0 0.000000000000000e0
0.000000000000000e0 0.000000000000000e0 0.000000000000000e0 0.000000000000000e0
0.000000000000000e0 0.000000000000000e0 0.000000000000000e0 0.000000000000000e0
0.000000000000000e0 0.000000000000000e0 0.000000000000000e0 0.000000000000000e0
0.000000000000000e0 0.000000000000000e0 0.000000000000000e0 0.000000000000000e0
0.000000000000000e0 0.000000000000000e0 0.000000000000000e0 0.000000000000000e0
0.000000000000000e0 0.000000000000000e0 0.000000000000000e0 0.000000000000000e0
0.000000000000000e0 0.000000000000000e0 0.000000000000000e0 0.000000000000000e0
0.000000000000000e0 0.000000000000000e0 0.000000000000000e0 0.000000000000000e0
0.000000000000000e0 0.000000000000000e0 0.000000000000000e0 0.000000000000000e0
0.000000000000000e0 0.000000000000000e0 0.000000000000000e0 0.000000000000000e0
0.000000000000000e0 0.000000000000000e0 0.000000000000000e0 0.000000000000000e0
0.000000000000000e0 0.000000000000000e0 0.000000000000000e0 0.000000000000000e0
0.000000000000000e0 0.000000000000000e0 0.000000000000000e0 0.000000000000000e0
0.000000000000000e0 0.000000000000000e0 0.000000000000000e0 0.000000000000000e0
0.000000000000000e0 0.000000000000000e0 0.000000000000000e0 0.000000000000000e0
0.000000000000000e0 0.000000000000000e0 0.000000000000000e0 0.000000000000000e0
0.000000000000000e0 0.000000000000000e0 0.000000000000000e0 0.000000000000000e0
0.000000000000000e0 0.000000000000000e0 0.000000000000000e0 0.000000000000000e0
0.000000000000000e0 0.000000000000000e0 0.000000000000000e0 0.000000000000000e0
0.000000000000000e0 0.000000000000000e0 0.000000000000000e0 0.000000000000000e0
0.000000000000000e0 0.000000000000000e0 0.000000000000000e0 0.000000000000000e0
0.000000000000000e0 0.000000000000000e0 0.000000000000000e0
</PP_BETA.3>
<PP_BETA.4 index="4" label="  " angular_momentum="1" cutoff_radius_index="627" cutoff_radius="0.000000000000e0" ultrasoft_cutoff_radius="0.000000000000e0">
0.000000000000000e0 -1.656587013480000e-12 -1.499590687160000e-8 -1.346962948900000e-8
-1.355042147700000e-8 -1.344581087740000e-8 -1.334011978690000e-8 -1.320582054600000e-8
-1.305013591710000e-8 -1.286540640590000e-8 -1.265562888410000e-8 -1.242261940220000e-8
-1.215013698650000e-8 -1.185985859590000e-8 -1.152349760650000e-8 -1.116504816380000e-8
-1.076547048210000e-8 -1.033659029870000e-8 -9.853167839570000e-9 -9.361254146169998e-9
-8.782971156039999e-9 -8.196805044169999e-9 -7.550081749909998e-9 -6.892986458939999e-9
-6.098672286049998e-9 -5.345034131329999e-9 -4.485560197360000e-9 -3.592425570080000e-9
-2.657922759570000e-9 -1.578897974500000e-9 -5.638128141509999e-10 6.281655935179998e-10
1.815896953800000e-9 3.122865598130000e-9 4.477089854670001e-9 5.925297458939999e-9
7.430788976270000e-9 9.032227231620002e-9 1.073586358210000e-8 1.250419071110000e-8
1.439655281570000e-8 1.636315453970000e-8 1.839703440860000e-8 2.063532432760001e-8
2.289888205260000e-8 2.531771611410000e-8 2.777979116610000e-8 3.052410456500000e-8
3.326152196140000e-8 3.611980945740000e-8 3.920806888040001e-8 4.245830827200001e-8
4.569582721440001e-8 4.925875798920000e-8 5.288472116950000e-8 5.672474075649998e-8
6.069276920490001e-8 6.496187065030000e-8 6.918591739300001e-8 7.385499058099999e-8
7.859884929990000e-8 8.358957152589998e-8 8.866976288540002e-8 9.423038907740001e-8
9.979238055330001e-8 1.057269194810000e-7 1.117739540790000e-7 1.182918056640000e-7
1.249473654220000e-7 1.318653236010000e-7 1.391273567230000e-7 1.467297165720000e-7
1.545131556070000e-7 1.627635032220000e-7 1.712565829940000e-7 1.800193066520000e-7
1.895958612470000e-7 1.988228588140000e-7 2.090756352840000e-7 2.194048048330000e-7
2.302423742390000e-7 2.415077755210000e-7 2.531513871480000e-7 2.654774945440000e-7
2.779542376170000e-7 2.912347710070000e-7 3.049002108870000e-7 3.190622457910000e-7
3.338746834100000e-7 3.492614407630001e-7 3.651913427650000e-7 3.817837869930000e-7
3.988260589549999e-7 4.168772405019999e-7 4.355407263100000e-7 4.546180586350000e-7
4.745579653489999e-7 4.956953869770000e-7 5.170159089280000e-7 5.393907407559999e-7
5.628102821040002e-7 5.868168441429999e-7 6.118721364320000e-7 6.379517900769999e-7
6.648282771760000e-7 6.929105459600001e-7 7.218432986110002e-7 7.520334423039998e-7
7.832752334610003e-7 8.157138882929999e-7 8.491479437649998e-7 8.843628648200001e-7
9.202606490170002e-7 9.577696990620000e-7 9.969852743420001e-7 1.036840021230000e-6
1.079017131870000e-6 1.122253739680000e-6 1.167155221070000e-6 1.213915231880000e-6
1.262046216990000e-6 1.312218742200000e-6 1.364076967120000e-6 1.417899209660000e-6
1.473648923960000e-6 1.531568435770000e-6 1.591356082160000e-6 1.653356893430000e-6
1.717785539710000e-6 1.784319921370000e-6 1.853512409110000e-6 1.924983082590000e-6
1.999154010560000e-6 2.075856643750000e-6 2.155566697370000e-6 2.237956732760001e-6
2.323321260570000e-6 2.411754563599999e-6 2.503457298700000e-6 2.598337846770000e-6
2.696642740080000e-6 2.798580471020000e-6 2.903900325470000e-6 3.013091799350000e-6
3.126385100470000e-6 3.243231488970000e-6 3.364798235489999e-6 3.490502879539999e-6
3.620344681590000e-6 3.755148123510000e-6 3.894598815479999e-6 4.039220885450001e-6
4.188614221330000e-6 4.343329076700001e-6 4.503878574980000e-6 4.669626183410000e-6
4.841549068000001e-6 5.019527698460001e-6 5.203450606060000e-6 5.394421231910000e-6
5.591577885920000e-6 5.795917342989999e-6 6.007435691040000e-6 6.226343635959999e-6
6.452889742919998e-6 6.687626574020000e-6 6.930233451530000e-6 7.181680108870001e-6
7.441579037129999e-6 7.710995038749999e-6 7.989528802500000e-6 8.277931934779998e-6
8.576358842130000e-6 8.885137937560000e-6 9.205024982290000e-6 9.535584168550002e-6
9.878370765760000e-6 1.023198977670000e-5 1.059940694430000e-5 1.097806763180000e-5
1.137125065840000e-5 1.177729399220000e-5 1.219773015410000e-5 1.263272086260000e-5
1.308302737830000e-5 1.354879872870000e-5 1.403035813740000e-5 1.452963933230000e-5
1.504518455090000e-5 1.557922956190000e-5 1.613169433300000e-5 1.670298137000000e-5
1.729466502640000e-5 1.790626177940000e-5 1.853906425770000e-5 1.919449148190000e-5
1.987135284390000e-5 2.057276701100000e-5 2.129778985460000e-5 2.204829811450000e-5
2.282402789780000e-5 2.362747078420000e-5 2.445783388430000e-5 2.531727952840001e-5
2.620632588250000e-5 2.712607268469999e-5 2.807716615100000e-5 2.906174501910000e-5
3.007969753510000e-5 3.113248858110000e-5 3.222255526920001e-5 3.334896723379999e-5
3.451497864900000e-5 3.572079682910000e-5 3.696817992340000e-5 3.825825385280000e-5
3.959299516449999e-5 4.097330948400001e-5 4.240154088530000e-5 4.387842479550000e-5
4.540593849370000e-5 4.698643573770000e-5 4.862098808420000e-5 5.031137695779999e-5
5.205996989320000e-5 5.386887500409999e-5 5.573911112809999e-5 5.767440720829999e-5
5.967540798210001e-5 6.174520073709999e-5 6.388612750929999e-5 6.610011826040001e-5
6.839018708140000e-5 7.075872111970000e-5 7.320852025360001e-5 7.574178172329999e-5
7.836220221640000e-5 8.107207785810001e-5 8.387491560850002e-5 8.677369603289998e-5
8.977141503520000e-5 9.287208158910000e-5 9.607861061910000e-5 9.939434787160002e-5
1.028245743330000e-4 1.063711896390000e-4 1.100392493720000e-4 1.138328758150000e-4
1.177561320900000e-4 1.218133069340000e-4 1.260092207180000e-4 1.303485189720000e-4
1.348357010400000e-4 1.394768952950000e-4 1.442757527530000e-4 1.492390560050000e-4
1.543715138120000e-4 1.596792709910000e-4 1.651682130170000e-4 1.708443420570000e-4
1.767145216720000e-4 1.827845028790000e-4 1.890620856630000e-4 1.955534755260000e-4
2.022663621050000e-4 2.092080107760000e-4 2.163870376680000e-4 2.238097508110000e-4
2.314868054899999e-4 2.394247262990000e-4 2.476333533140000e-4 2.561219350360000e-4
2.648996714220000e-4 2.739766419190000e-4 2.833630552270001e-4 2.930686076380000e-4
3.031058161800000e-4 3.134839361830000e-4 3.242162622240000e-4 3.353136263920000e-4
3.467893200780000e-4 3.586555276700000e-4 3.709256780880000e-4 3.836139361130000e-4
3.967336900929999e-4 4.103006693119999e-4 4.243287243450000e-4 4.388346319830000e-4
4.538342175040000e-4 4.693440819349998e-4 4.853815916029999e-4 5.019653123439999e-4
5.191122219260000e-4 5.368437949890001e-4 5.551773616830000e-4 5.741349490300001e-4
5.937374113720001e-4 6.140065647820000e-4 6.349646359270000e-4 6.566354955090001e-4
6.790435342609999e-4 7.022132789820001e-4 7.261700584449999e-4 7.509422144029999e-4
7.765559105109999e-4 8.030400450730001e-4 8.304249653060001e-4 8.587395745780002e-4
8.880171770539999e-4 9.182893156239999e-4 9.495901707769999e-4 9.819543901069999e-4
1.015417938350000e-3 1.050018856870000e-3 1.085794419490000e-3 1.122785824420000e-3
1.161032890500000e-3 1.200579721260000e-3 1.241468743230000e-3 1.283746967980000e-3
1.327460293870000e-3 1.372657967360000e-3 1.419390179590000e-3 1.467708837080000e-3
1.517667825880000e-3 1.569322110620000e-3 1.622730782080000e-3 1.677950692240000e-3
1.735045439310000e-3 1.794077841970000e-3 1.855112983950000e-3 1.918218477150000e-3
1.983466388880000e-3 2.050926412720000e-3 2.120676113030000e-3 2.192790734090000e-3
2.267351717320000e-3 2.344441762990000e-3 2.424145586300000e-3 2.506552536870000e-3
2.591753634840000e-3 2.679843343870000e-3 2.770919317960000e-3 2.865083516100000e-3
2.962438511580000e-3 3.063094176410000e-3 3.167160098930000e-3 3.274753755820000e-3
3.385992580890000e-3 3.501000250930000e-3 3.619904774530000e-3 3.742837107050001e-3
3.869932915020000e-3 4.001334306990000e-3 4.137184907550000e-3 4.277636534510000e-3
4.422842656480000e-3 4.572965867800000e-3 4.728170136050000e-3 4.888628618929999e-3
5.054516691359999e-3 5.226019336750001e-3 5.403324162990000e-3 5.586628711359999e-3
5.776132653270000e-3 5.972047209730000e-3 6.174587252460000e-3 6.383975738689999e-3
6.600444014219999e-3 6.824229657460000e-3 7.055579219710001e-3 7.294747197570000e-3
7.541997198560000e-3 7.797599188590000e-3 8.061835941900000e-3 8.334996270729999e-3
8.617380878320001e-3 8.909298186839999e-3 9.211070512970000e-3 9.523025750690001e-3
9.845507393569999e-3 1.017886849650000e-2 1.052347226880000e-2 1.087969707590000e-2
1.124793091050000e-2 1.162857630880000e-2 1.202204916930000e-2 1.242877715250000e-2
1.284920505010000e-2 1.328378876320000e-2 1.373300290420000e-2 1.419733507340000e-2
1.467728917410000e-2 1.517338655680000e-2 1.568616536120000e-2 1.621618093500000e-2
1.676400654350000e-2 1.733023514930000e-2 1.791547847120000e-2 1.852036739830000e-2
1.914555442780000e-2 1.979171299040000e-2 2.045953761770000e-2 2.114974662760000e-2
2.186307868500000e-2 2.260030026910000e-2 2.336220030860000e-2 2.414959092020000e-2
2.496331519710000e-2 2.580423864210000e-2 2.667325685800000e-2 2.757129279850000e-2
2.849929928310000e-2 2.945825922630000e-2 3.044918600490000e-2 3.147312597700000e-2
3.253115640050000e-2 3.362439204340000e-2 3.475397682480000e-2 3.592109633570000e-2
3.712696799330000e-2 3.837285011270000e-2 3.966003759330000e-2 4.098986791440000e-2
4.236371466320000e-2 4.378299913580000e-2 4.524918085390000e-2 4.676376617960000e-2
4.832830553750000e-2 4.994439701060000e-2 5.161368380850000e-2 5.333786105870000e-2
5.511867111220000e-2 5.695790907060000e-2 5.885742044700000e-2 6.081910731260000e-2
6.284492245330000e-2 6.493687770780000e-2 6.709704079090000e-2 6.932753601780001e-2
7.163055037120001e-2 7.400832811900000e-2 7.646317706940000e-2 7.899746664660000e-2
8.161363191690000e-2 8.431416988039999e-2 8.710164618609999e-2 8.997869115699999e-2
9.294800560180001e-2 9.601235489750000e-2 9.917457734010000e-2 1.024375807630000e-1
1.058043410720000e-1 1.092779087140000e-1 1.128614041450000e-1 1.165580197920000e-1
1.203710201940000e-1 1.243037430840000e-1 1.283595969340000e-1 1.325420619990000e-1
1.368546919680000e-1 1.413011072810000e-1 1.458850019450000e-1 1.506101358790000e-1
1.554803372760000e-1 1.604994988010000e-1 1.656715772430000e-1 1.710005908180000e-1
1.764906131510000e-1 1.821457776390000e-1 1.879702632860000e-1 1.939683025690000e-1
2.001441656170000e-1 2.065021641230000e-1 2.130466393920000e-1 2.197819597300000e-1
2.267125120720000e-1 2.338426946660000e-1 2.411769076210000e-1 2.487195451390000e-1
2.564749841120000e-1 2.644475745230000e-1 2.726416244110000e-1 2.810613890740000e-1
2.897110587400000e-1 2.985947342910000e-1 3.077164231990000e-1 3.170800083100000e-1
3.266892392690000e-1 3.365477006100000e-1 3.466587977280000e-1 3.570257282960000e-1
3.676514514890000e-1 3.785386695060000e-1 3.896897845130000e-1 4.011068760630000e-1
4.127916586970001e-1 4.247454509110000e-1 4.369691240090000e-1 4.494630731670000e-1
4.622271598420000e-1 4.752606675010000e-1 4.885622516340000e-1 5.021298796900000e-1
5.159607768940000e-1 5.300513612980000e-1 5.443971799680000e-1 5.589928367420000e-1
5.738319241610000e-1 5.889069393490000e-1 6.042092073150000e-1 6.197287962430000e-1
6.354544208529999e-1 6.513733592349999e-1 6.674713433150000e-1 6.837324656710000e-1
7.001390647300000e-1 7.166716222690001e-1 7.333086402390000e-1 7.500265267050001e-1
7.667994733060000e-1 7.835993278409999e-1 8.003954647590000e-1 8.171546578060001e-1
8.338409412959999e-1 8.504154798630001e-1 8.668364321369999e-1 8.830588128250000e-1
8.990343651660000e-1 9.147114238369999e-1 9.300347931879999e-1 9.449456206350000e-1
9.593812886789999e-1 9.732753048410000e-1 9.865572094770000e-1 9.991525019150000e-1
1.010982569290000e0 1.021964652260000e0 1.032011823890000e0 1.041032996710000e0
1.048932966590000e0 1.055612485840000e0 1.060968383790000e0 1.064893727380000e0
1.067278041220000e0 1.068007575610000e0 1.066965653540000e0 1.064033071120000e0
1.059088595190000e0 1.052009533190000e0 1.042672400540000e0 1.030953695900000e0
1.016730772130000e0 9.998828339519999e-1 9.802920572410001e-1 9.578448301849999e-1
9.324331393980000e-1 9.039560880140000e-1 8.723215585520000e-1 8.374480188440000e-1
7.992664639380001e-1 7.577225049450000e-1 7.127785695449999e-1 6.644162354970000e-1
6.126386464530000e-1 5.574730137040000e-1 4.989731532490000e-1 4.372220418430000e-1
3.723343240920000e-1 3.044587383580000e-1 2.337803902280000e-1 1.605227888380000e-1
8.494959933399999e-2 7.365974297060001e-3 -7.188059238030000e-2 -1.524000203810000e-1
-2.337601101910000e-1 -3.154878250180000e-1 -3.970715111520000e-1 -4.779641331570000e-1
-5.575876195619999e-1 -6.353383591290001e-1 -7.105938632730000e-1 -7.827205470510000e-1
-8.510825212610001e-1 -9.150511811270000e-1 -9.740153049180000e-1 -1.027391200190000e0
-1.074632352780000e0 -1.115237831430000e0 -1.148758582220000e0 -1.174800608410000e0
-1.193023913800000e0 -1.203136125020000e0 -1.204879781940000e0 -1.198012667690000e0
-1.182281179290000e0 -1.157387903460000e0 -1.122956329020000e0 -1.078498389070000e0
-1.023394500980000e0 -9.569015325260001e-1 -8.782121299620000e-1 -7.865999311430000e-1
-6.817002258530001e-1 -5.639957670330000e-1 -4.356044577260000e-1 -3.014979539270000e-1
-1.713519815470000e-1 -6.203442981110000e-2 -3.255162107529999e-3 -7.093358405079999e-4
0.000000000000000e0 0.000000000000000e0 0.000000000000000e0 0.000000000000000e0
0.000000000000000e0 0.000000000000000e0 0.000000000000000e0 0.000000000000000e0
0.000000000000000e0 0.000000000000000e0 0.000000000000000e0 0.000000000000000e0
0.000000000000000e0 0.000000000000000e0 0.000000000000000e0 0.000000000000000e0
0.000000000000000e0 0.000000000000000e0 0.000000000000000e0 0.000000000000000e0
0.000000000000000e0 0.000000000000000e0 0.000000000000000e0 0.000000000000000e0
0.000000000000000e0 0.000000000000000e0 0.000000000000000e0 0.000000000000000e0
0.000000000000000e0 0.000000000000000e0 0.000000000000000e0 0.000000000000000e0
0.000000000000000e0 0.000000000000000e0 0.000000000000000e0 0.000000000000000e0
0.000000000000000e0 0.000000000000000e0 0.000000000000000e0 0.000000000000000e0
0.000000000000000e0 0.000000000000000e0 0.000000000000000e0 0.000000000000000e0
0.000000000000000e0 0.000000000000000e0 0.000000000000000e0 0.000000000000000e0
0.000000000000000e0 0.000000000000000e0 0.000000000000000e0 0.000000000000000e0
0.000000000000000e0 0.000000000000000e0 0.000000000000000e0 0.000000000000000e0
0.000000000000000e0 0.000000000000000e0 0.000000000000000e0 0.000000000000000e0
0.000000000000000e0 0.000000000000000e0 0.000000000000000e0 0.000000000000000e0
0.000000000000000e0 0.000000000000000e0 0.000000000000000e0 0.000000000000000e0
0.000000000000000e0 0.000000000000000e0 0.000000000000000e0 0.000000000000000e0
0.000000000000000e0 0.000000000000000e0 0.000000000000000e0 0.000000000000000e0
0.000000000000000e0 0.000000000000000e0 0.000000000000000e0 0.000000000000000e0
0.000000000000000e0 0.000000000000000e0 0.000000000000000e0 0.000000000000000e0
0.000000000000000e0 0.000000000000000e0 0.000000000000000e0 0.000000000000000e0
0.000000000000000e0 0.000000000000000e0 0.000000000000000e0 0.000000000000000e0
0.000000000000000e0 0.000000000000000e0 0.000000000000000e0 0.000000000000000e0
0.000000000000000e0 0.000000000000000e0 0.000000000000000e0 0.000000000000000e0
0.000000000000000e0 0.000000000000000e0 0.000000000000000e0 0.000000000000000e0
0.000000000000000e0 0.000000000000000e0 0.000000000000000e0 0.000000000000000e0
0.000000000000000e0 0.000000000000000e0 0.000000000000000e0 0.000000000000000e0
0.000000000000000e0 0.000000000000000e0 0.000000000000000e0 0.000000000000000e0
0.000000000000000e0 0.000000000000000e0 0.000000000000000e0 0.000000000000000e0
0.000000000000000e0 0.000000000000000e0 0.000000000000000e0 0.000000000000000e0
0.000000000000000e0 0.000000000000000e0 0.000000000000000e0 0.000000000000000e0
0.000000000000000e0 0.000000000000000e0 0.000000000000000e0 0.000000000000000e0
0.000000000000000e0 0.000000000000000e0 0.000000000000000e0 0.000000000000000e0
0.000000000000000e0 0.000000000000000e0 0.000000000000000e0 0.000000000000000e0
0.000000000000000e0 0.000000000000000e0 0.000000000000000e0 0.000000000000000e0
0.000000000000000e0 0.000000000000000e0 0.000000000000000e0 0.000000000000000e0
0.000000000000000e0 0.000000000000000e0 0.000000000000000e0 0.000000000000000e0
0.000000000000000e0 0.000000000000000e0 0.000000000000000e0 0.000000000000000e0
0.000000000000000e0 0.000000000000000e0 0.000000000000000e0 0.000000000000000e0
0.000000000000000e0 0.000000000000000e0 0.000000000000000e0 0.000000000000000e0
0.000000000000000e0 0.000000000000000e0 0.000000000000000e0 0.000000000000000e0
0.000000000000000e0 0.000000000000000e0 0.000000000000000e0 0.000000000000000e0
0.000000000000000e0 0.000000000000000e0 0.000000000000000e0 0.000000000000000e0
0.000000000000000e0 0.000000000000000e0 0.000000000000000e0 0.000000000000000e0
0.000000000000000e0 0.000000000000000e0 0.000000000000000e0 0.000000000000000e0
0.000000000000000e0 0.000000000000000e0 0.000000000000000e0 0.000000000000000e0
0.000000000000000e0 0.000000000000000e0 0.000000000000000e0 0.000000000000000e0
0.000000000000000e0 0.000000000000000e0 0.000000000000000e0 0.000000000000000e0
0.000000000000000e0 0.000000000000000e0 0.000000000000000e0 0.000000000000000e0
0.000000000000000e0 0.000000000000000e0 0.000000000000000e0 0.000000000000000e0
0.000000000000000e0 0.000000000000000e0 0.000000000000000e0 0.000000000000000e0
0.000000000000000e0 0.000000000000000e0 0.000000000000000e0 0.000000000000000e0
0.000000000000000e0 0.000000000000000e0 0.000000000000000e0 0.000000000000000e0
0.000000000000000e0 0.000000000000000e0 0.000000000000000e0 0.000000000000000e0
0.000000000000000e0 0.000000000000000e0 0.000000000000000e0 0.000000000000000e0
0.000000000000000e0 0.000000000000000e0 0.000000000000000e0 0.000000000000000e0
0.000000000000000e0 0.000000000000000e0 0.000000000000000e0 0.000000000000000e0
0.000000000000000e0 0.000000000000000e0 0.000000000000000e0 0.000000000000000e0
0.000000000000000e0 0.000000000000000e0 0.000000000000000e0 0.000000000000000e0
0.000000000000000e0 0.000000000000000e0 0.000000000000000e0 0.000000000000000e0
0.000000000000000e0 0.000000000000000e0 0.000000000000000e0 0.000000000000000e0
0.000000000000000e0 0.000000000000000e0 0.000000000000000e0 0.000000000000000e0
0.000000000000000e0 0.000000000000000e0 0.000000000000000e0 0.000000000000000e0
0.000000000000000e0 0.000000000000000e0 0.000000000000000e0 0.000000000000000e0
0.000000000000000e0 0.000000000000000e0 0.000000000000000e0 0.000000000000000e0
0.000000000000000e0 0.000000000000000e0 0.000000000000000e0 0.000000000000000e0
0.000000000000000e0 0.000000000000000e0 0.000000000000000e0 0.000000000000000e0
0.000000000000000e0 0.000000000000000e0 0.000000000000000e0 0.000000000000000e0
0.000000000000000e0 0.000000000000000e0 0.000000000000000e0 0.000000000000000e0
0.000000000000000e0 0.000000000000000e0 0.000000000000000e0 0.000000000000000e0
0.000000000000000e0 0.000000000000000e0 0.000000000000000e0
</PP_BETA.4>
<PP_BETA.5 index="5" label="  " angular_momentum="2" cutoff_radius_index="627" cutoff_radius="0.000000000000e0" ultrasoft_cutoff_radius="0.000000000000e0">
0.000000000000000e0 -1.480156996830000e-17 -3.148000948460000e-12 -2.899004681920000e-12
-2.985697139159999e-12 -3.040320457309998e-12 -3.099110132459999e-12 -3.158495445500001e-12
-3.218847394190000e-12 -3.280077155900001e-12 -3.342275282739999e-12 -3.405387733520000e-12
-3.469355091490000e-12 -3.534357828850000e-12 -3.600106771700000e-12 -3.666824879109999e-12
-3.734571932459999e-12 -3.802925166300001e-12 -3.872331823670001e-12 -3.942527034540000e-12
-4.013700970770000e-12 -4.085171101849999e-12 -4.158353337810001e-12 -4.231282358650001e-12
-4.305579841880000e-12 -4.380444480420000e-12 -4.455841886540002e-12 -4.532143825280000e-12
-4.608277529470000e-12 -4.686567465760001e-12 -4.763240709339999e-12 -4.842114774240001e-12
-4.920029885520000e-12 -4.999292368199999e-12 -5.078285368460000e-12 -5.157194159279999e-12
-5.236923588110000e-12 -5.315769084510000e-12 -5.395067729790000e-12 -5.473880756949999e-12
-5.552343423110000e-12 -5.630334881909999e-12 -5.707411564360000e-12 -5.785876321709999e-12
-5.858862165100000e-12 -5.936691355099998e-12 -6.006947826569998e-12 -6.082192396000000e-12
-6.151444941779999e-12 -6.217486859229999e-12 -6.288496666270000e-12 -6.351045496939999e-12
-6.411757237630001e-12 -6.469572577289999e-12 -6.527508480460000e-12 -6.578285215819999e-12
-6.628900248509999e-12 -6.671250643520001e-12 -6.712332615509999e-12 -6.742237669750002e-12
-6.779434512220001e-12 -6.799239700410000e-12 -6.815361029370002e-12 -6.825226578220001e-12
-6.831259354850000e-12 -6.827963358910000e-12 -6.808928327280000e-12 -6.786394164280002e-12
-6.759398590530001e-12 -6.708941448720001e-12 -6.660342892840001e-12 -6.592366571980000e-12
-6.509525367640001e-12 -6.413895275179998e-12 -6.308330498819998e-12 -6.182384988999999e-12
-6.045077103840001e-12 -5.869729499580000e-12 -5.701260344489999e-12 -5.495252385320000e-12
-5.271666170220000e-12 -5.024247679990000e-12 -4.745616477330001e-12 -4.457821500160001e-12
-4.118628580240000e-12 -3.762354390450000e-12 -3.374495457150001e-12 -2.941768007960000e-12
-2.479615667939999e-12 -1.987198715280000e-12 -1.426528405970000e-12 -8.575749495110003e-13
-2.105628656629999e-13 4.784758577600000e-13 1.184901838540000e-12 2.007313629080000e-12
2.850606246350001e-12 3.758263745290000e-12 4.739381580560000e-12 5.786516454360000e-12
6.920657688239997e-12 8.111978594640000e-12 9.414167616329999e-12 1.076830283330000e-11
1.225856728000000e-11 1.382267093450000e-11 1.546420106900000e-11 1.729472914569999e-11
1.916702566630000e-11 2.118866025959999e-11 2.336708288240000e-11 2.565394897270000e-11
2.806516730150000e-11 3.069958616360000e-11 3.343021976929999e-11 3.638222434320000e-11
3.949654757319999e-11 4.277955252339999e-11 4.632920501640000e-11 5.004263956330002e-11
5.396009686549998e-11 5.821267216560001e-11 6.264769556910000e-11 6.732363616930000e-11
7.236574869590000e-11 7.764326697410001e-11 8.326737147379998e-11 8.919445768700001e-11
9.549348380180000e-11 1.021895895030000e-10 1.091896793270000e-10 1.167080885700000e-10
1.245874989920000e-10 1.329443158400000e-10 1.417762360830000e-10 1.511853780430001e-10
1.609849162680000e-10 1.715201567340000e-10 1.825672307160000e-10 1.942377375460000e-10
2.065695050270000e-10 2.196149208500000e-10 2.334761827320000e-10 2.479914781980000e-10
2.633678177500001e-10 2.796885753850000e-10 2.967637519230000e-10 3.149831700060000e-10
3.340657291469999e-10 3.542434050590000e-10 3.757134506230000e-10 3.980512499210000e-10
4.219198388939999e-10 4.470418333810001e-10 4.733831003430000e-10 5.014174171599999e-10
5.308718039320002e-10 5.619208879149999e-10 5.947176891320001e-10 6.293095180019997e-10
6.658078701379999e-10 7.043158493340002e-10 7.448408443389997e-10 7.876726328809999e-10
8.327493323920001e-10 8.803397665330001e-10 9.305570575140001e-10 9.833230381530001e-10
1.039236039140000e-9 1.097853412720000e-9 1.159779454660000e-9 1.225233819900000e-9
1.293885825680000e-9 1.366347378840000e-9 1.442984639530000e-9 1.523260423550000e-9
1.608353379370000e-9 1.697525096590000e-9 1.791917937610000e-9 1.891002805670000e-9
1.995687742210000e-9 2.105752065100000e-9 2.221835007039999e-9 2.344024923080000e-9
2.472715038990000e-9 2.608519234430001e-9 2.751253147540000e-9 2.901567500250000e-9
3.060243318640000e-9 3.226863421589999e-9 3.402725714749999e-9 3.587732060839999e-9
3.782556066810000e-9 3.987889845600001e-9 4.203775498360000e-9 4.431352883700001e-9
4.670784778490000e-9 4.923190627480000e-9 5.188541926400000e-9 5.467887513260000e-9
5.762682477520000e-9 6.072067536890000e-9 6.398280084540000e-9 6.741900705050002e-9
7.102889736239999e-9 7.483724061450001e-9 7.883919805459999e-9 8.305473433510002e-9
8.749204010140000e-9 9.216181621910001e-9 9.707598203019998e-9 1.022501674840000e-8
1.076934734690000e-8 1.134241855810000e-8 1.194540624480000e-8 1.258000715330000e-8
1.324803200830000e-8 1.395045777250000e-8 1.469075295480000e-8 1.546838222310000e-8
1.628781375600000e-8 1.714964842330000e-8 1.805638602500000e-8 1.901066883150000e-8
2.001483833040000e-8 2.107121451460000e-8 2.218315082710000e-8 2.335254455530000e-8
2.458335926419999e-8 2.587807812160000e-8 2.724043033760000e-8 2.867380501080000e-8
3.018179731850000e-8 3.176832270780000e-8 3.343702297450000e-8 3.519374867140001e-8
3.704041197250001e-8 3.898452557470000e-8 4.102859338990000e-8 4.317964043820000e-8
4.544222619309998e-8 4.782251164239999e-8 5.032645460630000e-8 5.296016422869999e-8
5.573156708680001e-8 5.864527433070000e-8 6.171172010240000e-8 6.493702097930000e-8
6.832912007719999e-8 7.189707738539999e-8 7.565078166949998e-8 7.959926345210000e-8
8.375120621410000e-8 8.811978488639999e-8 9.271351629930001e-8 9.754651601310000e-8
1.026286867580000e-7 1.079750324240000e-7 1.135974108590000e-7 1.195117933160000e-7
1.257319501790000e-7 1.322729489360000e-7 1.391543802420000e-7 1.463907255530000e-7
1.540018282940000e-7 1.620063962710000e-7 1.704243310590000e-7 1.792785333300000e-7
1.885903658110000e-7 1.983830860630000e-7 2.086824043840001e-7 2.195132730829999e-7
2.309044764920000e-7 2.428847405310000e-7 2.554815083570001e-7 2.687321148150001e-7
2.826637819790000e-7 2.973180841280000e-7 3.127265384459999e-7 3.289315614590000e-7
3.459716216620000e-7 3.638938158120000e-7 3.827383160260000e-7 4.025566339350000e-7
4.233968250829999e-7 4.453128821260000e-7 4.683577395910000e-7 4.925932770149999e-7
5.180766077259999e-7 5.448757621790000e-7 5.730560522480000e-7 6.026885858620000e-7
6.338496772440001e-7 6.666151353489999e-7 7.010725461189999e-7 7.373024805020001e-7
7.754011266329998e-7 8.154621201989997e-7 8.575869787329999e-7 9.018827537240002e-7
9.484588277580002e-7 9.974370456799999e-7 1.048933393980000e-6 1.103083752650000e-6
1.160023954200000e-6 1.219893899880000e-6 1.282846999610000e-6 1.349041502940000e-6
1.418641259350000e-6 1.491828025440000e-6 1.568777005200000e-6 1.649688227150000e-6
1.734763621990000e-6 1.824216613910000e-6 1.918271374120000e-6 2.017165787780000e-6
2.121149122269999e-6 2.230479082779999e-6 2.345436463110000e-6 2.466302887080000e-6
2.593388385859999e-6 2.727009349679999e-6 2.867500977030000e-6 3.015216160440000e-6
3.170530886830000e-6 3.333825646310000e-6 3.505519658320000e-6 3.686038488590000e-6
3.875834968430000e-6 4.075393681930001e-6 4.285200979310000e-6 4.505799963990000e-6
4.737729044730000e-6 4.981582047070000e-6 5.237959785490000e-6 5.507519977610000e-6
5.790919508809999e-6 6.088886973139999e-6 6.402159632649999e-6 6.731524693159998e-6
7.077809717680000e-6 7.441878299069998e-6 7.824649269380001e-6 8.227080471690002e-6
8.650170840199999e-6 9.094995955380000e-6 9.562658570780000e-6 1.005433412560000e-5
1.057124999830000e-5 1.111471466490000e-5 1.168606577570000e-5 1.228675383090000e-5
1.291827749530000e-5 1.358220570620000e-5 1.428021983500000e-5 1.501404878470000e-5
1.578554043840000e-5 1.659661798980000e-5 1.744931210800000e-5 1.834575863470000e-5
1.928819417240000e-5 2.027897333070000e-5 2.132058543389999e-5 2.241562036350000e-5
2.356681419640000e-5 2.477705910780000e-5 2.604936392489999e-5 2.738690687970000e-5
2.879304168500000e-5 3.027126289930000e-5 3.182527227990000e-5 3.345894510920000e-5
3.517636379880000e-5 3.698179867419999e-5 3.887977690529999e-5 4.087501276010000e-5
4.297248909720000e-5 4.517744011940001e-5 4.749536340090000e-5 4.993201613390000e-5
5.249350200820000e-5 5.518617610850000e-5 5.801675264689999e-5 6.099228888130000e-5
6.412017363159999e-5 6.740822034280001e-5 7.086456693769999e-5 7.449786786010000e-5
7.831709880680000e-5 8.233180789340000e-5 8.655192874369998e-5 9.098798085150001e-5
9.565096630900001e-5 1.005524695380000e-4 1.057046463660000e-4 1.111203106410000e-4
1.168128535550000e-4 1.227964394630000e-4 1.290858604100000e-4 1.356967190260000e-4
1.426454056640000e-4 1.499490844530000e-4 1.576258597800000e-4 1.656947457360000e-4
1.741756200840000e-4 1.830895375090000e-4 1.924584380660000e-4 2.023055185790000e-4
2.126550361260000e-4 2.235325336489999e-4 2.349648543430000e-4 2.469801365100000e-4
2.596079557530000e-4 2.728794357980000e-4 2.868271957530000e-4 3.014854825940001e-4
3.168903865290000e-4 3.330796336250000e-4 3.500929763530000e-4 3.679721263000000e-4
3.867608512089999e-4 4.065051318630000e-4 4.272532627950000e-4 4.490559266910000e-4
4.719663460290000e-4 4.960404091770000e-4 5.213367375090000e-4 5.479169566140001e-4
5.758456524660000e-4 6.051906889610001e-4 6.360232699020001e-4 6.684181316590000e-4
7.024536884349999e-4 7.382122180740001e-4 7.757800936420000e-4 8.152479231720001e-4
8.567107190000000e-4 9.002682466769997e-4 9.460250735590002e-4 9.940909092640002e-4
1.044580827010000e-3 1.097615516250000e-3 1.153321446870000e-3 1.211831382080000e-3
1.273284277050000e-3 1.337826069390000e-3 1.405609474980000e-3 1.476794690080000e-3
1.551549540310000e-3 1.630049895690000e-3 1.712479901100000e-3 1.799032572120000e-3
1.889910008960000e-3 1.985323785940000e-3 2.085495489200000e-3 2.190657054540000e-3
2.301051201830000e-3 2.416932009250000e-3 2.538565099029999e-3 2.666228618900000e-3
2.800213113880000e-3 2.940822626670000e-3 3.088374819310000e-3 3.243201737430001e-3
3.405650222740000e-3 3.576082569770000e-3 3.754877123030000e-3 3.942428702610000e-3
4.139149373930000e-3 4.345469027200000e-3 4.561835783439999e-3 4.788716879020000e-3
5.026599130529999e-3 5.275989507510000e-3 5.537415720100000e-3 5.811427090430000e-3
6.098594517370000e-3 6.399511762100001e-3 6.714795474380000e-3 7.045085715279999e-3
7.391046782190001e-3 7.753367136070000e-3 8.132760068600000e-3 8.529964025889999e-3
8.945742511339999e-3 9.380884502440001e-3 9.836204424709999e-3 1.031254178340000e-2
1.081076146910000e-2 1.133175265460000e-2 1.187642893630000e-2 1.244572699000000e-2
1.304060589880000e-2 1.366204581890000e-2 1.431104637260000e-2 1.498862480490000e-2
1.569581380890000e-2 1.643365888730000e-2 1.720321489310000e-2 1.800554327750000e-2
1.884170660790000e-2 1.971276544950000e-2 2.061977085940000e-2 2.156376026110000e-2
2.254574828640000e-2 2.356672031720000e-2 2.462762221300000e-2 2.572935059980000e-2
2.687274136060000e-2 2.805855597520000e-2 2.928746787090000e-2 3.056004558060000e-2
3.187673492730000e-2 3.323783868180000e-2 3.464349450089999e-2 3.609364962270000e-2
3.758803413180000e-2 3.912612961120000e-2 4.070713653759999e-2 4.232993654440000e-2
4.399305223530000e-2 4.569460216130000e-2 4.743225180940000e-2 4.920315965470000e-2
5.100391886680001e-2 5.283049184930000e-2 5.467814176500000e-2 5.654135479140000e-2
5.841375779780000e-2 6.028802871690000e-2 6.215579876150001e-2 6.400754745410000e-2
6.583248941090001e-2 6.761845269060000e-2 6.935174807730000e-2 7.101702932999999e-2
7.259714501700000e-2 7.407297954020001e-2 7.542328703579999e-2 7.662451344330000e-2
7.765061344530000e-2 7.847285557240000e-2 7.905962284840000e-2 7.937620632929999e-2
7.938459335820001e-2 7.904325411510000e-2 7.830692787790000e-2 7.712641038040000e-2
7.544834971519999e-2 7.321505059630001e-2 7.036429584840000e-2 6.682918911460000e-2
6.253802596020000e-2 5.741420328519999e-2 5.137617441090000e-2 4.433746211810000e-2
3.620674253730000e-2 2.688801095360000e-2 1.628085001110000e-2 4.280812330460000e-3
-9.220058936090002e-3 -2.433255367780000e-2 -4.116943920710000e-2 -5.984440101780000e-2
-8.047075667549999e-2 -1.031599153580000e-1 -1.280195594890000e-1 -1.551515211820000e-1
-1.846493319990000e-1 -2.165954264220000e-1 -2.510579789960000e-1 -2.880873724790000e-1
-3.277122926880000e-1 -3.699354601660000e-1 -4.147290320950000e-1 -4.620297123770000e-1
-5.117336425220000e-1 -5.636911718120000e-1 -6.177016305050000e-1 -6.735082798290000e-1
-7.307936476550000e-1 -7.891755079950000e-1 -8.482038224520000e-1 -9.073590038559999e-1
-9.660519344750000e-1 -1.023626206120000e0 -1.079363110120000e0 -1.132489922930000e0
-1.182192045180000e0 -1.227629527010000e0 -1.267958424160000e0 -1.302357308440000e0
-1.330059001240000e0 -1.350387294450000e0 -1.362797926930000e0 -1.366922483530000e0
-1.362613066510000e0 -1.349984611190000e0 -1.329450535090000e0 -1.301746105940000e0
-1.267932523300000e0 -1.229373464220000e0 -1.187674959880000e0 -1.144579491460000e0
-1.101806796490000e0 -1.060838226220000e0 -1.022650240510000e0 -9.874182585620000e-1
-9.542381489540000e-1 -9.209543095990000e-1 -8.842478360670000e-1 -8.364229010150000e-1
-7.541772034560000e-1 -6.287993752020000e-1 -4.588366336390000e-1 -2.587400622240000e-1
-7.409430602980000e-2 8.186609899990000e-4 0.000000000000000e0 0.000000000000000e0
0.000000000000000e0 0.000000000000000e0 0.000000000000000e0 0.000000000000000e0
0.000000000000000e0 0.000000000000000e0 0.000000000000000e0 0.000000000000000e0
0.000000000000000e0 0.000000000000000e0 0.000000000000000e0 0.000000000000000e0
0.000000000000000e0 0.000000000000000e0 0.000000000000000e0 0.000000000000000e0
0.000000000000000e0 0.000000000000000e0 0.000000000000000e0 0.000000000000000e0
0.000000000000000e0 0.000000000000000e0 0.000000000000000e0 0.000000000000000e0
0.000000000000000e0 0.000000000000000e0 0.000000000000000e0 0.000000000000000e0
0.000000000000000e0 0.000000000000000e0 0.000000000000000e0 0.000000000000000e0
0.000000000000000e0 0.000000000000000e0 0.000000000000000e0 0.000000000000000e0
0.000000000000000e0 0.000000000000000e0 0.000000000000000e0 0.000000000000000e0
0.000000000000000e0 0.000000000000000e0 0.000000000000000e0 0.000000000000000e0
0.000000000000000e0 0.000000000000000e0 0.000000000000000e0 0.000000000000000e0
0.000000000000000e0 0.000000000000000e0 0.000000000000000e0 0.000000000000000e0
0.000000000000000e0 0.000000000000000e0 0.000000000000000e0 0.000000000000000e0
0.000000000000000e0 0.000000000000000e0 0.000000000000000e0 0.000000000000000e0
0.000000000000000e0 0.000000000000000e0 0.000000000000000e0 0.000000000000000e0
0.000000000000000e0 0.000000000000000e0 0.000000000000000e0 0.000000000000000e0
0.000000000000000e0 0.000000000000000e0 0.000000000000000e0 0.000000000000000e0
0.000000000000000e0 0.000000000000000e0 0.000000000000000e0 0.000000000000000e0
0.000000000000000e0 0.000000000000000e0 0.000000000000000e0 0.000000000000000e0
0.000000000000000e0 0.000000000000000e0 0.000000000000000e0 0.000000000000000e0
0.000000000000000e0 0.000000000000000e0 0.000000000000000e0 0.000000000000000e0
0.000000000000000e0 0.000000000000000e0 0.000000000000000e0 0.000000000000000e0
0.000000000000000e0 0.000000000000000e0 0.000000000000000e0 0.000000000000000e0
0.000000000000000e0 0.000000000000000e0 0.000000000000000e0 0.000000000000000e0
0.000000000000000e0 0.000000000000000e0 0.000000000000000e0 0.000000000000000e0
0.000000000000000e0 0.000000000000000e0 0.000000000000000e0 0.000000000000000e0
0.000000000000000e0 0.000000000000000e0 0.000000000000000e0 0.000000000000000e0
0.000000000000000e0 0.000000000000000e0 0.000000000000000e0 0.000000000000000e0
0.000000000000000e0 0.000000000000000e0 0.000000000000000e0 0.000000000000000e0
0.000000000000000e0 0.000000000000000e0 0.000000000000000e0 0.000000000000000e0
0.000000000000000e0 0.000000000000000e0 0.000000000000000e0 0.000000000000000e0
0.000000000000000e0 0.000000000000000e0 0.000000000000000e0 0.000000000000000e0
0.000000000000000e0 0.000000000000000e0 0.000000000000000e0 0.000000000000000e0
0.000000000000000e0 0.000000000000000e0 0.000000000000000e0 0.000000000000000e0
0.000000000000000e0 0.000000000000000e0 0.000000000000000e0 0.000000000000000e0
0.000000000000000e0 0.000000000000000e0 0.000000000000000e0 0.000000000000000e0
0.000000000000000e0 0.000000000000000e0 0.000000000000000e0 0.000000000000000e0
0.000000000000000e0 0.000000000000000e0 0.000000000000000e0 0.000000000000000e0
0.000000000000000e0 0.000000000000000e0 0.000000000000000e0 0.000000000000000e0
0.000000000000000e0 0.000000000000000e0 0.000000000000000e0 0.000000000000000e0
0.000000000000000e0 0.000000000000000e0 0.000000000000000e0 0.000000000000000e0
0.000000000000000e0 0.000000000000000e0 0.000000000000000e0 0.000000000000000e0
0.000000000000000e0 0.000000000000000e0 0.000000000000000e0 0.000000000000000e0
0.000000000000000e0 0.000000000000000e0 0.000000000000000e0 0.000000000000000e0
0.000000000000000e0 0.000000000000000e0 0.000000000000000e0 0.000000000000000e0
0.000000000000000e0 0.000000000000000e0 0.000000000000000e0 0.000000000000000e0
0.000000000000000e0 0.000000000000000e0 0.000000000000000e0 0.000000000000000e0
0.000000000000000e0 0.000000000000000e0 0.000000000000000e0 0.000000000000000e0
0.000000000000000e0 0.000000000000000e0 0.000000000000000e0 0.000000000000000e0
0.000000000000000e0 0.000000000000000e0 0.000000000000000e0 0.000000000000000e0
0.000000000000000e0 0.000000000000000e0 0.000000000000000e0 0.000000000000000e0
0.000000000000000e0 0.000000000000000e0 0.000000000000000e0 0.000000000000000e0
0.000000000000000e0 0.000000000000000e0 0.000000000000000e0 0.000000000000000e0
0.000000000000000e0 0.000000000000000e0 0.000000000000000e0 0.000000000000000e0
0.000000000000000e0 0.000000000000000e0 0.000000000000000e0 0.000000000000000e0
0.000000000000000e0 0.000000000000000e0 0.000000000000000e0 0.000000000000000e0
0.000000000000000e0 0.000000000000000e0 0.000000000000000e0 0.000000000000000e0
0.000000000000000e0 0.000000000000000e0 0.000000000000000e0 0.000000000000000e0
0.000000000000000e0 0.000000000000000e0 0.000000000000000e0 0.000000000000000e0
0.000000000000000e0 0.000000000000000e0 0.000000000000000e0 0.000000000000000e0
0.000000000000000e0 0.000000000000000e0 0.000000000000000e0 0.000000000000000e0
0.000000000000000e0 0.000000000000000e0 0.000000000000000e0 0.000000000000000e0
0.000000000000000e0 0.000000000000000e0 0.000000000000000e0 0.000000000000000e0
0.000000000000000e0 0.000000000000000e0 0.000000000000000e0 0.000000000000000e0
0.000000000000000e0 0.000000000000000e0 0.000000000000000e0 0.000000000000000e0
0.000000000000000e0 0.000000000000000e0 0.000000000000000e0 0.000000000000000e0
0.000000000000000e0 0.000000000000000e0 0.000000000000000e0 0.000000000000000e0
0.000000000000000e0 0.000000000000000e0 0.000000000000000e0 0.000000000000000e0
0.000000000000000e0 0.000000000000000e0 0.000000000000000e0
</PP_BETA.5>
<PP_BETA.6 index="6" label="  " angular_momentum="2" cutoff_radius_index="627" cutoff_radius="0.000000000000e0" ultrasoft_cutoff_radius="0.000000000000e0">
0.000000000000000e0 -2.019064438070000e-17 -3.327146788899999e-11 -3.064001964960000e-11
-3.155673043730000e-11 -3.213478324780001e-11 -3.275726839009999e-11 -3.338661352420000e-11
-3.402662425420000e-11 -3.467713662980000e-11 -3.533816975980000e-11 -3.601005903780000e-11
-3.669282109790001e-11 -3.738638794160000e-11 -3.809148284040001e-11 -3.880735969550000e-11
-3.953480517940000e-11 -4.027383821930000e-11 -4.102428553400000e-11 -4.178660092610001e-11
-4.256030698780000e-11 -4.334673517490000e-11 -4.414380506150001e-11 -4.495451595250000e-11
-4.577651642379999e-11 -4.661062322390000e-11 -4.745763144990000e-11 -4.831644776610000e-11
-4.918878242399998e-11 -5.007083146849999e-11 -5.096970623189999e-11 -5.187639084780001e-11
-5.279991593159999e-11 -5.373313648500000e-11 -5.467918871289999e-11 -5.563949632970000e-11
-5.660963613200000e-11 -5.759477122940000e-11 -5.859016465070001e-11 -5.959982238609999e-11
-6.061922330320000e-11 -6.165283485880002e-11 -6.269766494680002e-11 -6.375077753450000e-11
-6.482243396310001e-11 -6.589744125229999e-11 -6.699062422840002e-11 -6.808593304510000e-11
-6.919977438579999e-11 -7.032323982010000e-11 -7.144718471189999e-11 -7.258662391010002e-11
-7.373800520710000e-11 -7.489297648190002e-11 -7.605540649660001e-11 -7.722602870559998e-11
-7.839884247260001e-11 -7.958215545930002e-11 -8.076866943040001e-11 -8.196316182269999e-11
-8.314667526180003e-11 -8.434453162030000e-11 -8.554091057570002e-11 -8.673871078150000e-11
-8.792626821829998e-11 -8.911061956730000e-11 -9.030699336050002e-11 -9.148782411590000e-11
-9.264678540709998e-11 -9.381684193500000e-11 -9.496305532090000e-11 -9.609878662880000e-11
-9.722464635060001e-11 -9.832594211559998e-11 -9.940737906740001e-11 -1.004663928820000e-10
-1.014912009390000e-10 -1.025112649020000e-10 -1.034777935570000e-10 -1.044144946560000e-10
-1.053096787920000e-10 -1.061694704340000e-10 -1.069870492110001e-10 -1.077222915240000e-10
-1.084422837400000e-10 -1.090768938050000e-10 -1.096521849280000e-10 -1.101607196180000e-10
-1.105840794300000e-10 -1.109188865900000e-10 -1.112009380280000e-10 -1.113318732110000e-10
-1.113972435800000e-10 -1.113650551390000e-10 -1.111300054180000e-10 -1.108806428560000e-10
-1.104198183050000e-10 -1.098319461100000e-10 -1.090809608040000e-10 -1.081627700270000e-10
-1.070850653650000e-10 -1.057828797370000e-10 -1.043194123980000e-10 -1.025699898050000e-10
-1.006634645210000e-10 -9.848471491559998e-11 -9.596776482759999e-11 -9.331209096720002e-11
-9.024331786969999e-11 -8.689583539099999e-11 -8.324458584369998e-11 -7.917830226260001e-11
-7.473033281130002e-11 -6.995638589590002e-11 -6.464980317570000e-11 -5.898773007289999e-11
-5.279377555320000e-11 -4.604943514870000e-11 -3.885668129339999e-11 -3.104523875590000e-11
-2.255308573570000e-11 -1.356781220320000e-11 -3.803114405340000e-12 6.719089413679999e-12
1.792206344720000e-11 2.996366889860000e-11 4.283700208259999e-11 5.668817491630000e-11
7.143058990910001e-11 8.715340151040001e-11 1.041022578900000e-10 1.219932068550000e-10
1.411651418160000e-10 1.616152618650000e-10 1.834168069710000e-10 2.064925337240000e-10
2.313025523549999e-10 2.574295889890000e-10 2.853274472240000e-10 3.150569368610000e-10
3.465291140289999e-10 3.800379523720000e-10 4.154451194009999e-10 4.532317981669999e-10
4.932654224630000e-10 5.355883803240000e-10 5.807531469160001e-10 6.282487459740000e-10
6.788936544410000e-10 7.325136472320000e-10 7.889880207250000e-10 8.493115815319998e-10
9.127765244109998e-10 9.799736131960000e-10 1.051445537010000e-9 1.126549699260000e-9
1.206315786210000e-9 1.290674334230000e-9 1.379808562610001e-9 1.474044750850000e-9
1.573641329870000e-9 1.678943409670000e-9 1.790201952090000e-9 1.907732168690000e-9
2.031998795439999e-9 2.163159108650000e-9 2.301604757490000e-9 2.448109445600000e-9
2.602256741220000e-9 2.765673885100000e-9 2.937679616820000e-9 3.119281383130000e-9
3.311216582539999e-9 3.513640427409999e-9 3.726871170220000e-9 3.952465762350000e-9
4.189927605620000e-9 4.440780617080001e-9 4.705036907700000e-9 4.984111004210000e-9
5.278069679200000e-9 5.588353788050001e-9 5.915261248839999e-9 6.260102326960002e-9
6.623789979810001e-9 7.006527915079999e-9 7.410712764530000e-9 7.836606430810002e-9
8.285005364460002e-9 8.758308985419999e-9 9.256431877110003e-9 9.781718273630002e-9
1.033510006520000e-8 1.091801283410000e-8 1.153256456950000e-8 1.217968598480000e-8
1.286170701900000e-8 1.357961489100000e-8 1.433651170030000e-8 1.513389084750000e-8
1.597235968660000e-8 1.685725583590000e-8 1.778834612060000e-8 1.876851407700000e-8
1.980194011850000e-8 2.088882368510000e-8 2.203443134880001e-8 2.324037951310001e-8
2.450972861900000e-8 2.584679865000000e-8 2.725443890450000e-8 2.873612580400000e-8
3.029653290560000e-8 3.193885432030000e-8 3.366819125480001e-8 3.548814881149998e-8
3.740419126680000e-8 3.942166158840000e-8 4.154370883560000e-8 4.377940636750001e-8
4.613090438280000e-8 4.860649363510000e-8 5.121250214559999e-8 5.395443201089999e-8
5.684058920699999e-8 5.987815053460000e-8 6.307420942899997e-8 6.643864919829998e-8
6.997828384120000e-8 7.370389583890001e-8 7.762357748630001e-8 8.174868560589999e-8
8.608919507420000e-8 9.065646201130001e-8 9.546298894420001e-8 1.005183386170000e-7
1.058400646420000e-7 1.114372050340000e-7 1.173275868680000e-7 1.235243934130000e-7
1.300442579940000e-7 1.369037510700000e-7 1.441201944720000e-7 1.517131913230000e-7
1.596993508530000e-7 1.681040689750000e-7 1.769431706590000e-7 1.862423820900000e-7
1.960263782150001e-7 2.063178398880000e-7 2.171439997070000e-7 2.285316725360000e-7
2.405128317890000e-7 2.531139087470000e-7 2.663704182150000e-7 2.803133916250001e-7
2.949813419170000e-7 3.104085229390000e-7 3.266368897260000e-7 3.437053696920000e-7
3.616590121200000e-7 3.805449891230000e-7 4.004058524400000e-7 4.212984116939999e-7
4.432706755830001e-7 4.663822423620000e-7 4.906911129600000e-7 5.162562206789999e-7
5.431450973270000e-7 5.714254742160001e-7 6.011687109950000e-7 6.324510313469998e-7
6.653503819490001e-7 6.999498513710000e-7 7.363418772869999e-7 7.746100206030000e-7
8.148611871390001e-7 8.571867268479998e-7 9.017046189949999e-7 9.485180683600001e-7
9.977537613870000e-7 1.049527758540000e-6 1.103978981730000e-6 1.161239686750000e-6
1.221457865890000e-6 1.284782653580000e-6 1.351378889340000e-6 1.421408728700000e-6
1.495055253810000e-6 1.572498782320000e-6 1.653938778950000e-6 1.739580637730000e-6
1.829638071790000e-6 1.924343646060000e-6 2.023925664740000e-6 2.128649464160000e-6
2.238769202870000e-6 2.354566921880000e-6 2.476333231920000e-6 2.604375067300000e-6
2.739017334890001e-6 2.880593349420000e-6 3.029471791750000e-6 3.186016989910001e-6
3.350625020490000e-6 3.523716759230000e-6 3.705722240710001e-6 3.897102221670000e-6
4.098342809180000e-6 4.309937260920000e-6 4.532436840249999e-6 4.766390054510000e-6
5.012387074009999e-6 5.271049651740000e-6 5.543029336749999e-6 5.829008638530000e-6
6.129705500250000e-6 6.445883873089999e-6 6.778328205959999e-6 7.127887015870000e-6
7.495430686790000e-6 7.881885609159999e-6 8.288227062639999e-6 8.715478151789998e-6
9.164697309450000e-6 9.637040576840000e-6 1.013367348940000e-5 1.065585516300000e-5
1.120489932700000e-5 1.178217172090000e-5 1.238914869040000e-5 1.302732615300000e-5
1.369833450010000e-5 1.440384006560000e-5 1.514563193210000e-5 1.592555309400000e-5
1.674558952310000e-5 1.760777709200000e-5 1.851429701830000e-5 1.946741569080000e-5
2.046953664320000e-5 2.152317525290000e-5 2.263096911210000e-5 2.379570427820000e-5
2.502031836800000e-5 2.630786428780000e-5 2.766158911559999e-5 2.908489100670000e-5
3.058134465410000e-5 3.215468833550000e-5 3.380890619300000e-5 3.554811992350000e-5
3.737670368400000e-5 3.929926932000000e-5 4.132059950000000e-5 4.344580960100000e-5
4.568020990700000e-5 4.802941460320000e-5 5.049932399910000e-5 5.309612431940001e-5
5.582634590240000e-5 5.869683921909999e-5 6.171479125629999e-5 6.488779230360000e-5
6.822381041440000e-5 7.173118723089999e-5 7.541875069630001e-5 7.929575073780002e-5
8.337189956180000e-5 8.765743803549999e-5 9.216312015460000e-5 9.690024335430001e-5
1.018806922510000e-4 1.071169822990000e-4 1.126222186520000e-4 1.184102461040000e-4
1.244955741700000e-4 1.308934643210000e-4 1.376199692700000e-4 1.446919955460000e-4
1.521272421620000e-4 1.599443974790000e-4 1.681630719040000e-4 1.768038721460000e-4
1.858884988730000e-4 1.954397198830000e-4 2.054815588170000e-4 2.160391290930000e-4
2.271390156050000e-4 2.388089947780000e-4 2.510784206450000e-4 2.639780309010000e-4
2.775402312200000e-4 2.917990449260000e-4 3.067902870169999e-4 3.225515335840000e-4
3.391224189090000e-4 3.565444645259999e-4 3.748614662470000e-4 3.941193959080000e-4
4.143665421930000e-4 4.356538507210000e-4 4.580346975229999e-4 4.815652551150000e-4
5.063047354939999e-4 5.323151138990000e-4 5.596618545809999e-4 5.884135436340000e-4
6.186424723589999e-4 6.504245664489999e-4 6.838396250000001e-4 7.189716564890000e-4
7.559089646099999e-4 7.947442953460002e-4 8.355753022409999e-4 8.785046321700001e-4
9.236401257350002e-4 9.710953450160000e-4 1.020989557580000e-3 1.073448213190000e-3
1.128603270320000e-3 1.186593448230000e-3 1.247564601270000e-3 1.311670138240000e-3
1.379071345360000e-3 1.449937812670000e-3 1.524447955940000e-3 1.602789238520000e-3
1.685158961680000e-3 1.771764488850000e-3 1.862823877930000e-3 1.958566506480000e-3
2.059233517620000e-3 2.165078576090000e-3 2.276368327180000e-3 2.393383248030000e-3
2.516418313460000e-3 2.645783642600001e-3 2.781805436330000e-3 2.924826726180000e-3
3.075208240900000e-3 3.233329282510000e-3 3.399588916640000e-3 3.574406539750000e-3
3.758223600670000e-3 3.951503855350000e-3 4.154735528130001e-3 4.368431693850000e-3
4.593132118940000e-3 4.829404333070000e-3 5.077845391180000e-3 5.339082973889999e-3
5.613777262340001e-3 5.902622638530000e-3 6.206349248480000e-3 6.525724979560001e-3
6.861557419310000e-3 7.214695745889999e-3 7.586033266620000e-3 7.976508971309999e-3
8.387110731700000e-3 8.818877184210001e-3 9.272900551069998e-3 9.750329422509999e-3
1.025237161340000e-2 1.078029714800000e-2 1.133544141550000e-2 1.191920863710000e-2
1.253307525970000e-2 1.317859344900000e-2 1.385739544980000e-2 1.457119699430000e-2
1.532180187380000e-2 1.611110634220000e-2 1.694110379070000e-2 1.781388906650000e-2
1.873166467370000e-2 1.969674470940000e-2 2.071156129630000e-2 2.177867036240000e-2
2.290075694690000e-2 2.408064257080000e-2 2.532129077350000e-2 2.662581445840000e-2
2.799748341560000e-2 2.943973052200000e-2 3.095616089570000e-2 3.255055862240000e-2
3.422689586790000e-2 3.598934087620000e-2 3.784226735890000e-2 3.979026284470000e-2
4.183813923190000e-2 4.399094090149999e-2 4.625395646230000e-2 4.863272699800000e-2
5.113305830710000e-2 5.376102950600000e-2 5.652300576400000e-2 5.942564733299999e-2
6.247592168810000e-2 6.568111344030001e-2 6.904883635469999e-2 7.258704269250000e-2
7.630403495019999e-2 8.020847549540001e-2 8.430939615310001e-2 8.861620856209999e-2
9.313871067979999e-2 9.788709767820000e-2 1.028719650390000e-1 1.081043173770000e-1
1.135955698740000e-1 1.193575524450000e-1 1.254025093540000e-1 1.317430968000000e-1
1.383923793210000e-1 1.453638209580000e-1 1.526712754270000e-1 1.603289692440000e-1
1.683514841960000e-1 1.767537303900000e-1 1.855509183850000e-1 1.947585202800000e-1
2.043922277400000e-1 2.144678995340000e-1 2.250015016580000e-1 2.360090370450000e-1
2.475064662900000e-1 2.595096146010000e-1 2.720340669170000e-1 2.850950514450000e-1
2.987073033790000e-1 3.128849180790000e-1 3.276411811200000e-1 3.429883858830000e-1
3.589376234770000e-1 3.754985602940000e-1 3.926791833340000e-1 4.104855327480000e-1
4.289213976870000e-1 4.479879991660000e-1 4.676836359570000e-1 4.880033109410000e-1
5.089383287390000e-1 5.304758655100001e-1 5.525985163000000e-1 5.752838158540000e-1
5.985037402710000e-1 6.222241860480000e-1 6.464044396970000e-1 6.709966301970000e-1
6.959451867510000e-1 7.211862908450000e-1 7.466473509190000e-1 7.722464929400000e-1
7.978920942030000e-1 8.234823650470000e-1 8.489050002979999e-1 8.740369194880000e-1
8.987441120089999e-1 9.228816200699999e-1 9.462936727330000e-1 9.688140102729999e-1
9.902664153780000e-1 1.010465492060000e0 1.029217708900000e0 1.046322746800000e0
1.061575162270000e0 1.074766405140000e0 1.085687180460000e0 1.094130186830000e0
1.099893200690000e0 1.102782495180000e0 1.102616551260000e0 1.099229982970000e0
1.092477591510000e0 1.082238406240000e0 1.068419545720000e0 1.050959674200000e0
1.029831798300000e0 1.005045065900000e0 9.766452208410000e-1 9.447132651170001e-1
9.093619000860000e-1 8.707292317749999e-1 8.289692876300000e-1 7.842388784890000e-1
7.366804715570000e-1 6.864008897210000e-1 6.334459091559999e-1 5.777712561270000e-1
5.192109947760000e-1 4.574451194310000e-1 3.919690742410000e-1 3.220692406880000e-1
2.468099337280000e-1 1.650393581270000e-1 7.542409421609999e-2 -2.347588454620000e-2
-1.330772475960000e-1 -2.545716561620000e-1 -3.886341245190000e-1 -5.350228140770001e-1
-6.920539821969999e-1 -8.559422482590000e-1 -1.020009443640000e0 -1.173788635990000e0
-1.302088532330000e0 -1.384144608340000e0 -1.393077021240000e0 -1.310541092730000e0
-1.173276700480000e0 -9.706303676710000e-1 -7.024564357250000e-1 -3.925942332670000e-1
-1.107745875800000e-1 2.216966869660000e-3 0.000000000000000e0 0.000000000000000e0
0.000000000000000e0 0.000000000000000e0 0.000000000000000e0 0.000000000000000e0
0.000000000000000e0 0.000000000000000e0 0.000000000000000e0 0.000000000000000e0
0.000000000000000e0 0.000000000000000e0 0.000000000000000e0 0.000000000000000e0
0.000000000000000e0 0.000000000000000e0 0.000000000000000e0 0.000000000000000e0
0.000000000000000e0 0.000000000000000e0 0.000000000000000e0 0.000000000000000e0
0.000000000000000e0 0.000000000000000e0 0.000000000000000e0 0.000000000000000e0
0.000000000000000e0 0.000000000000000e0 0.000000000000000e0 0.000000000000000e0
0.000000000000000e0 0.000000000000000e0 0.000000000000000e0 0.000000000000000e0
0.000000000000000e0 0.000000000000000e0 0.000000000000000e0 0.000000000000000e0
0.000000000000000e0 0.000000000000000e0 0.000000000000000e0 0.000000000000000e0
0.000000000000000e0 0.000000000000000e0 0.000000000000000e0 0.000000000000000e0
0.000000000000000e0 0.000000000000000e0 0.000000000000000e0 0.000000000000000e0
0.000000000000000e0 0.000000000000000e0 0.000000000000000e0 0.000000000000000e0
0.000000000000000e0 0.000000000000000e0 0.000000000000000e0 0.000000000000000e0
0.000000000000000e0 0.000000000000000e0 0.000000000000000e0 0.000000000000000e0
0.000000000000000e0 0.000000000000000e0 0.000000000000000e0 0.000000000000000e0
0.000000000000000e0 0.000000000000000e0 0.000000000000000e0 0.000000000000000e0
0.000000000000000e0 0.000000000000000e0 0.000000000000000e0 0.000000000000000e0
0.000000000000000e0 0.000000000000000e0 0.000000000000000e0 0.000000000000000e0
0.000000000000000e0 0.000000000000000e0 0.000000000000000e0 0.000000000000000e0
0.000000000000000e0 0.000000000000000e0 0.000000000000000e0 0.000000000000000e0
0.000000000000000e0 0.000000000000000e0 0.000000000000000e0 0.000000000000000e0
0.000000000000000e0 0.000000000000000e0 0.000000000000000e0 0.000000000000000e0
0.000000000000000e0 0.000000000000000e0 0.000000000000000e0 0.000000000000000e0
0.000000000000000e0 0.000000000000000e0 0.000000000000000e0 0.000000000000000e0
0.000000000000000e0 0.000000000000000e0 0.000000000000000e0 0.000000000000000e0
0.000000000000000e0 0.000000000000000e0 0.000000000000000e0 0.000000000000000e0
0.000000000000000e0 0.000000000000000e0 0.000000000000000e0 0.000000000000000e0
0.000000000000000e0 0.000000000000000e0 0.000000000000000e0 0.000000000000000e0
0.000000000000000e0 0.000000000000000e0 0.000000000000000e0 0.000000000000000e0
0.000000000000000e0 0.000000000000000e0 0.000000000000000e0 0.000000000000000e0
0.000000000000000e0 0.000000000000000e0 0.000000000000000e0 0.000000000000000e0
0.000000000000000e0 0.000000000000000e0 0.000000000000000e0 0.000000000000000e0
0.000000000000000e0 0.000000000000000e0 0.000000000000000e0 0.000000000000000e0
0.000000000000000e0 0.000000000000000e0 0.000000000000000e0 0.000000000000000e0
0.000000000000000e0 0.000000000000000e0 0.000000000000000e0 0.000000000000000e0
0.000000000000000e0 0.000000000000000e0 0.000000000000000e0 0.000000000000000e0
0.000000000000000e0 0.000000000000000e0 0.000000000000000e0 0.000000000000000e0
0.000000000000000e0 0.000000000000000e0 0.000000000000000e0 0.000000000000000e0
0.000000000000000e0 0.000000000000000e0 0.000000000000000e0 0.000000000000000e0
0.000000000000000e0 0.000000000000000e0 0.000000000000000e0 0.000000000000000e0
0.000000000000000e0 0.000000000000000e0 0.000000000000000e0 0.000000000000000e0
0.000000000000000e0 0.000000000000000e0 0.000000000000000e0 0.000000000000000e0
0.000000000000000e0 0.000000000000000e0 0.000000000000000e0 0.000000000000000e0
0.000000000000000e0 0.000000000000000e0 0.000000000000000e0 0.000000000000000e0
0.000000000000000e0 0.000000000000000e0 0.000000000000000e0 0.000000000000000e0
0.000000000000000e0 0.000000000000000e0 0.000000000000000e0 0.000000000000000e0
0.000000000000000e0 0.000000000000000e0 0.000000000000000e0 0.000000000000000e0
0.000000000000000e0 0.000000000000000e0 0.000000000000000e0 0.000000000000000e0
0.000000000000000e0 0.000000000000000e0 0.000000000000000e0 0.000000000000000e0
0.000000000000000e0 0.000000000000000e0 0.000000000000000e0 0.000000000000000e0
0.000000000000000e0 0.000000000000000e0 0.000000000000000e0 0.000000000000000e0
0.000000000000000e0 0.000000000000000e0 0.000000000000000e0 0.000000000000000e0
0.000000000000000e0 0.000000000000000e0 0.000000000000000e0 0.000000000000000e0
0.000000000000000e0 0.000000000000000e0 0.000000000000000e0 0.000000000000000e0
0.000000000000000e0 0.000000000000000e0 0.000000000000000e0 0.000000000000000e0
0.000000000000000e0 0.000000000000000e0 0.000000000000000e0 0.000000000000000e0
0.000000000000000e0 0.000000000000000e0 0.000000000000000e0 0.000000000000000e0
0.000000000000000e0 0.000000000000000e0 0.000000000000000e0 0.000000000000000e0
0.000000000000000e0 0.000000000000000e0 0.000000000000000e0 0.000000000000000e0
0.000000000000000e0 0.000000000000000e0 0.000000000000000e0 0.000000000000000e0
0.000000000000000e0 0.000000000000000e0 0.000000000000000e0 0.000000000000000e0
0.000000000000000e0 0.000000000000000e0 0.000000000000000e0 0.000000000000000e0
0.000000000000000e0 0.000000000000000e0 0.000000000000000e0 0.000000000000000e0
0.000000000000000e0 0.000000000000000e0 0.000000000000000e0 0.000000000000000e0
0.000000000000000e0 0.000000000000000e0 0.000000000000000e0 0.000000000000000e0
0.000000000000000e0 0.000000000000000e0 0.000000000000000e0 0.000000000000000e0
0.000000000000000e0 0.000000000000000e0 0.000000000000000e0 0.000000000000000e0
0.000000000000000e0 0.000000000000000e0 0.000000000000000e0 0.000000000000000e0
0.000000000000000e0 0.000000000000000e0 0.000000000000000e0
</PP_BETA.6>
<PP_DIJ>
1.812132321440000e-1 3.705499664630000e0 0.000000000000000e0 0.000000000000000e0
0.000000000000000e0 0.000000000000000e0 3.705499664630000e0 -3.069323269100000e0
0.000000000000000e0 0.000000000000000e0 0.000000000000000e0 0.000000000000000e0
0.000000000000000e0 0.000000000000000e0 -1.752591995730000e0 3.778728854510000e0
0.000000000000000e0 0.000000000000000e0 0.000000000000000e0 0.000000000000000e0
3.778728854510000e0 -1.230506996600000e0 0.000000000000000e0 0.000000000000000e0
0.000000000000000e0 0.000000000000000e0 0.000000000000000e0 0.000000000000000e0
1.189262559790000e0 -2.829571476030000e0 0.000000000000000e0 0.000000000000000e0
0.000000000000000e0 0.000000000000000e0 -2.829571476030000e0 6.590707149100000e0
</PP_DIJ>
<PP_AUGMENTATION q_with_l="false" nqf="8" nqlc="5">
<PP_Q>
-6.008171503800001e-1 3.870926008430000e-1 0.000000000000000e0 0.000000000000000e0
0.000000000000000e0 0.000000000000000e0 3.870926008430000e-1 1.442653795110000e-3
0.000000000000000e0 0.000000000000000e0 0.000000000000000e0 0.000000000000000e0
0.000000000000000e0 0.000000000000000e0 -3.634555649130000e-1 1.133830240210000e-1
0.000000000000000e0 0.000000000000000e0 0.000000000000000e0 0.000000000000000e0
1.133830240210000e-1 4.208800019970000e-1 0.000000000000000e0 0.000000000000000e0
0.000000000000000e0 0.000000000000000e0 0.000000000000000e0 0.000000000000000e0
2.447697591490000e-1 -3.877136543340000e-1 0.000000000000000e0 0.000000000000000e0
0.000000000000000e0 0.000000000000000e0 -3.877136543340000e-1 5.584022102550001e-1
</PP_Q>
<!-- polinomial expansion of Q_ij at small radius -->
<PP_QFCOEF>
-3.731617094690000e-1 -1.921402222830000e1 4.851712546950001e1 5.524987107980000e0
-2.000322931790000e2 3.637081222820000e2 -2.814598163720000e2 8.287391825840000e1
0.000000000000000e0 0.000000000000000e0 0.000000000000000e0 0.000000000000000e0
0.000000000000000e0 0.000000000000000e0 0.000000000000000e0 0.000000000000000e0
0.000000000000000e0 0.000000000000000e0 0.000000000000000e0 0.000000000000000e0
0.000000000000000e0 0.000000000000000e0 0.000000000000000e0 0.000000000000000e0
0.000000000000000e0 0.000000000000000e0 0.000000000000000e0 0.000000000000000e0
0.000000000000000e0 0.000000000000000e0 0.000000000000000e0 0.000000000000000e0
0.000000000000000e0 0.000000000000000e0 0.000000000000000e0 0.000000000000000e0
0.000000000000000e0 0.000000000000000e0 0.000000000000000e0 0.000000000000000e0
7.470488169300000e0 -2.710018631040001e1 4.286507278920000e1 -2.624570979310000e1
-3.039531427820000e1 7.841151970129999e1 -6.393971207150000e1 1.902606410820000e1
0.000000000000000e0 0.000000000000000e0 0.000000000000000e0 0.000000000000000e0
0.000000000000000e0 0.000000000000000e0 0.000000000000000e0 0.000000000000000e0
0.000000000000000e0 0.000000000000000e0 0.000000000000000e0 0.000000000000000e0
0.000000000000000e0 0.000000000000000e0 0.000000000000000e0 0.000000000000000e0
0.000000000000000e0 0.000000000000000e0 0.000000000000000e0 0.000000000000000e0
0.000000000000000e0 0.000000000000000e0 0.000000000000000e0 0.000000000000000e0
0.000000000000000e0 0.000000000000000e0 0.000000000000000e0 0.000000000000000e0
0.000000000000000e0 0.000000000000000e0 0.000000000000000e0 0.000000000000000e0
0.000000000000000e0 0.000000000000000e0 0.000000000000000e0 0.000000000000000e0
0.000000000000000e0 0.000000000000000e0 0.000000000000000e0 0.000000000000000e0
-7.379544821600000e0 2.151705275530000e1 -1.013456579710000e2 4.548180666700000e2
-1.125441932080000e3 1.498070155330000e3 -1.019400093760000e3 2.789260993340001e2
0.000000000000000e0 0.000000000000000e0 0.000000000000000e0 0.000000000000000e0
0.000000000000000e0 0.000000000000000e0 0.000000000000000e0 0.000000000000000e0
0.000000000000000e0 0.000000000000000e0 0.000000000000000e0 0.000000000000000e0
0.000000000000000e0 0.000000000000000e0 0.000000000000000e0 0.000000000000000e0
0.000000000000000e0 0.000000000000000e0 0.000000000000000e0 0.000000000000000e0
0.000000000000000e0 0.000000000000000e0 0.000000000000000e0 0.000000000000000e0
0.000000000000000e0 0.000000000000000e0 0.000000000000000e0 0.000000000000000e0
0.000000000000000e0 0.000000000000000e0 0.000000000000000e0 0.000000000000000e0
1.448679034690000e1 -4.843630302920000e1 -2.482291013410000e1 5.250385846130001e2
-1.492456679250000e3 2.040442628650000e3 -1.395699430650000e3 3.818025937460001e2
0.000000000000000e0 0.000000000000000e0 0.000000000000000e0 0.000000000000000e0
0.000000000000000e0 0.000000000000000e0 0.000000000000000e0 0.000000000000000e0
0.000000000000000e0 0.000000000000000e0 0.000000000000000e0 0.000000000000000e0
0.000000000000000e0 0.000000000000000e0 0.000000000000000e0 0.000000000000000e0
0.000000000000000e0 0.000000000000000e0 0.000000000000000e0 0.000000000000000e0
0.000000000000000e0 0.000000000000000e0 0.000000000000000e0 0.000000000000000e0
0.000000000000000e0 0.000000000000000e0 0.000000000000000e0 0.000000000000000e0
0.000000000000000e0 0.000000000000000e0 0.000000000000000e0 0.000000000000000e0
0.000000000000000e0 0.000000000000000e0 0.000000000000000e0 0.000000000000000e0
0.000000000000000e0 0.000000000000000e0 0.000000000000000e0 0.000000000000000e0
-6.239942110270000e0 5.347549417210001e-1 1.898782311120000e2 -9.310268722490001e2
2.142671752230001e3 -2.657076519260001e3 1.706346743090000e3 -4.454185165860000e2
0.000000000000000e0 0.000000000000000e0 0.000000000000000e0 0.000000000000000e0
0.000000000000000e0 0.000000000000000e0 0.000000000000000e0 0.000000000000000e0
0.000000000000000e0 0.000000000000000e0 0.000000000000000e0 0.000000000000000e0
0.000000000000000e0 0.000000000000000e0 0.000000000000000e0 0.000000000000000e0
0.000000000000000e0 0.000000000000000e0 0.000000000000000e0 0.000000000000000e0
0.000000000000000e0 0.000000000000000e0 0.000000000000000e0 0.000000000000000e0
0.000000000000000e0 0.000000000000000e0 0.000000000000000e0 0.000000000000000e0
0.000000000000000e0 0.000000000000000e0 0.000000000000000e0 0.000000000000000e0
1.019459556800000e1 3.952993937920000e0 -3.780453924450000e2 1.828032970550001e3
-4.198196326760001e3 5.203843143940001e3 -3.341611233410000e3 8.722981210440002e2
0.000000000000000e0 0.000000000000000e0 0.000000000000000e0 0.000000000000000e0
0.000000000000000e0 0.000000000000000e0 0.000000000000000e0 0.000000000000000e0
0.000000000000000e0 0.000000000000000e0 0.000000000000000e0 0.000000000000000e0
0.000000000000000e0 0.000000000000000e0 0.000000000000000e0 0.000000000000000e0
7.470488169300000e0 -2.710018631040001e1 4.286507278920000e1 -2.624570979310000e1
-3.039531427820000e1 7.841151970129999e1 -6.393971207150000e1 1.902606410820000e1
0.000000000000000e0 0.000000000000000e0 0.000000000000000e0 0.000000000000000e0
0.000000000000000e0 0.000000000000000e0 0.000000000000000e0 0.000000000000000e0
0.000000000000000e0 0.000000000000000e0 0.000000000000000e0 0.000000000000000e0
0.000000000000000e0 0.000000000000000e0 0.000000000000000e0 0.000000000000000e0
0.000000000000000e0 0.000000000000000e0 0.000000000000000e0 0.000000000000000e0
0.000000000000000e0 0.000000000000000e0 0.000000000000000e0 0.000000000000000e0
0.000000000000000e0 0.000000000000000e0 0.000000000000000e0 0.000000000000000e0
0.000000000000000e0 0.000000000000000e0 0.000000000000000e0 0.000000000000000e0
6.997749560330000e-1 -5.556257621230000e0 1.512822815560000e1 -2.616685701720000e1
3.783029001770000e1 -4.163037543620000e1 2.713680390190000e1 -7.454499022090000e0
0.000000000000000e0 0.000000000000000e0 0.000000000000000e0 0.000000000000000e0
0.000000000000000e0 0.000000000000000e0 0.000000000000000e0 0.000000000000000e0
0.000000000000000e0 0.000000000000000e0 0.000000000000000e0 0.000000000000000e0
0.000000000000000e0 0.000000000000000e0 0.000000000000000e0 0.000000000000000e0
0.000000000000000e0 0.000000000000000e0 0.000000000000000e0 0.000000000000000e0
0.000000000000000e0 0.000000000000000e0 0.000000000000000e0 0.000000000000000e0
0.000000000000000e0 0.000000000000000e0 0.000000000000000e0 0.000000000000000e0
0.000000000000000e0 0.000000000000000e0 0.000000000000000e0 0.000000000000000e0
0.000000000000000e0 0.000000000000000e0 0.000000000000000e0 0.000000000000000e0
0.000000000000000e0 0.000000000000000e0 0.000000000000000e0 0.000000000000000e0
8.885287744979999e0 -2.713373638830000e1 -3.024287973650000e1 3.773804953730000e2
-1.040948656910000e3 1.413418952190000e3 -9.647572209790001e2 2.637095562260001e2
0.000000000000000e0 0.000000000000000e0 0.000000000000000e0 0.000000000000000e0
0.000000000000000e0 0.000000000000000e0 0.000000000000000e0 0.000000000000000e0
0.000000000000000e0 0.000000000000000e0 0.000000000000000e0 0.000000000000000e0
0.000000000000000e0 0.000000000000000e0 0.000000000000000e0 0.000000000000000e0
0.000000000000000e0 0.000000000000000e0 0.000000000000000e0 0.000000000000000e0
0.000000000000000e0 0.000000000000000e0 0.000000000000000e0 0.000000000000000e0
0.000000000000000e0 0.000000000000000e0 0.000000000000000e0 0.000000000000000e0
0.000000000000000e0 0.000000000000000e0 0.000000000000000e0 0.000000000000000e0
9.374200474049999e0 -3.383531816850001e1 -1.107018337740000e1 3.466917778240000e2
-1.004389265180000e3 1.381042375320000e3 -9.470817892850000e2 2.594793288860000e2
0.000000000000000e0 0.000000000000000e0 0.000000000000000e0 0.000000000000000e0
0.000000000000000e0 0.000000000000000e0 0.000000000000000e0 0.000000000000000e0
0.000000000000000e0 0.000000000000000e0 0.000000000000000e0 0.000000000000000e0
0.000000000000000e0 0.000000000000000e0 0.000000000000000e0 0.000000000000000e0
0.000000000000000e0 0.000000000000000e0 0.000000000000000e0 0.000000000000000e0
0.000000000000000e0 0.000000000000000e0 0.000000000000000e0 0.000000000000000e0
0.000000000000000e0 0.000000000000000e0 0.000000000000000e0 0.000000000000000e0
0.000000000000000e0 0.000000000000000e0 0.000000000000000e0 0.000000000000000e0
0.000000000000000e0 0.000000000000000e0 0.000000000000000e0 0.000000000000000e0
0.000000000000000e0 0.000000000000000e0 0.000000000000000e0 0.000000000000000e0
-4.673864643580000e0 3.370464413770000e0 1.076790334500000e2 -5.432226440710000e2
1.254780985720000e3 -1.557225853390000e3 1.000324615510000e3 -2.611703977250000e2
0.000000000000000e0 0.000000000000000e0 0.000000000000000e0 0.000000000000000e0
0.000000000000000e0 0.000000000000000e0 0.000000000000000e0 0.000000000000000e0
0.000000000000000e0 0.000000000000000e0 0.000000000000000e0 0.000000000000000e0
0.000000000000000e0 0.000000000000000e0 0.000000000000000e0 0.000000000000000e0
0.000000000000000e0 0.000000000000000e0 0.000000000000000e0 0.000000000000000e0
0.000000000000000e0 0.000000000000000e0 0.000000000000000e0 0.000000000000000e0
0.000000000000000e0 0.000000000000000e0 0.000000000000000e0 0.000000000000000e0
0.000000000000000e0 0.000000000000000e0 0.000000000000000e0 0.000000000000000e0
9.073745006939999e0 -5.838070013980000e0 -2.128878974380001e2 1.067939785720000e3
-2.463798986020000e3 3.055878947220001e3 -1.962157739520000e3 5.120957698780001e2
0.000000000000000e0 0.000000000000000e0 0.000000000000000e0 0.000000000000000e0
0.000000000000000e0 0.000000000000000e0 0.000000000000000e0 0.000000000000000e0
0.000000000000000e0 0.000000000000000e0 0.000000000000000e0 0.000000000000000e0
0.000000000000000e0 0.000000000000000e0 0.000000000000000e0 0.000000000000000e0
0.000000000000000e0 0.000000000000000e0 0.000000000000000e0 0.000000000000000e0
0.000000000000000e0 0.000000000000000e0 0.000000000000000e0 0.000000000000000e0
-7.379544821600000e0 2.151705275530000e1 -1.013456579710000e2 4.548180666700000e2
-1.125441932080000e3 1.498070155330000e3 -1.019400093760000e3 2.789260993340001e2
0.000000000000000e0 0.000000000000000e0 0.000000000000000e0 0.000000000000000e0
0.000000000000000e0 0.000000000000000e0 0.000000000000000e0 0.000000000000000e0
0.000000000000000e0 0.000000000000000e0 0.000000000000000e0 0.000000000000000e0
0.000000000000000e0 0.000000000000000e0 0.000000000000000e0 0.000000000000000e0
0.000000000000000e0 0.000000000000000e0 0.000000000000000e0 0.000000000000000e0
0.000000000000000e0 0.000000000000000e0 0.000000000000000e0 0.000000000000000e0
0.000000000000000e0 0.000000000000000e0 0.000000000000000e0 0.000000000000000e0
0.000000000000000e0 0.000000000000000e0 0.000000000000000e0 0.000000000000000e0
8.885287744979999e0 -2.713373638830000e1 -3.024287973650000e1 3.773804953730000e2
-1.040948656910000e3 1.413418952190000e3 -9.647572209790001e2 2.637095562260001e2
0.000000000000000e0 0.000000000000000e0 0.000000000000000e0 0.000000000000000e0
0.000000000000000e0 0.000000000000000e0 0.000000000000000e0 0.000000000000000e0
0.000000000000000e0 0.000000000000000e0 0.000000000000000e0 0.000000000000000e0
0.000000000000000e0 0.000000000000000e0 0.000000000000000e0 0.000000000000000e0
0.000000000000000e0 0.000000000000000e0 0.000000000000000e0 0.000000000000000e0
0.000000000000000e0 0.000000000000000e0 0.000000000000000e0 0.000000000000000e0
5.596392544610000e-1 -1.486946407840000e1 3.069345333420000e1 2.601690941890000e1
-1.981673209730000e2 3.363270591110000e2 -2.557084488310000e2 7.485497384759999e1
0.000000000000000e0 0.000000000000000e0 0.000000000000000e0 0.000000000000000e0
0.000000000000000e0 0.000000000000000e0 0.000000000000000e0 0.000000000000000e0
-1.437257970590000e1 4.270875158020000e1 -3.372617820470000e1 -8.182335345529999e1
2.696721545820000e2 -3.417543292030000e2 2.108360458770000e2 -5.193409208130000e1
0.000000000000000e0 0.000000000000000e0 0.000000000000000e0 0.000000000000000e0
0.000000000000000e0 0.000000000000000e0 0.000000000000000e0 0.000000000000000e0
0.000000000000000e0 0.000000000000000e0 0.000000000000000e0 0.000000000000000e0
0.000000000000000e0 0.000000000000000e0 0.000000000000000e0 0.000000000000000e0
4.600090236200000e0 -2.209432546080000e1 4.021445714040000e1 -1.286301815620000e1
-8.448655606640001e1 1.676699394520000e2 -1.322835038400000e2 3.924261138400000e1
0.000000000000000e0 0.000000000000000e0 0.000000000000000e0 0.000000000000000e0
0.000000000000000e0 0.000000000000000e0 0.000000000000000e0 0.000000000000000e0
5.404001526820000e0 4.099078796400000e1 -5.884917176150001e2 2.617115454130000e3
-5.926301135340001e3 7.336286162010002e3 -4.719257190860001e3 1.235078234620000e3
0.000000000000000e0 0.000000000000000e0 0.000000000000000e0 0.000000000000000e0
0.000000000000000e0 0.000000000000000e0 0.000000000000000e0 0.000000000000000e0
0.000000000000000e0 0.000000000000000e0 0.000000000000000e0 0.000000000000000e0
0.000000000000000e0 0.000000000000000e0 0.000000000000000e0 0.000000000000000e0
0.000000000000000e0 0.000000000000000e0 0.000000000000000e0 0.000000000000000e0
0.000000000000000e0 0.000000000000000e0 0.000000000000000e0 0.000000000000000e0
-2.443386266920000e0 1.081343816930000e1 -8.995582789889999e0 -4.332233348520000e1
1.508471848440000e2 -2.143145213880000e2 1.481337725130000e2 -4.064891957200000e1
0.000000000000000e0 0.000000000000000e0 0.000000000000000e0 0.000000000000000e0
0.000000000000000e0 0.000000000000000e0 0.000000000000000e0 0.000000000000000e0
3.735261720130000e0 -1.089975350810000e2 8.751099130060002e2 -3.336885093020001e3
6.957203806380001e3 -8.131121258520002e3 5.004461722580001e3 -1.264120631340000e3
0.000000000000000e0 0.000000000000000e0 0.000000000000000e0 0.000000000000000e0
0.000000000000000e0 0.000000000000000e0 0.000000000000000e0 0.000000000000000e0
0.000000000000000e0 0.000000000000000e0 0.000000000000000e0 0.000000000000000e0
0.000000000000000e0 0.000000000000000e0 0.000000000000000e0 0.000000000000000e0
4.322347952830000e0 -1.981532441370000e1 9.401443587999999e0 1.202897185180000e2
-3.791493288980001e2 5.278485217640000e2 -3.620654786300000e2 9.893497615970000e1
0.000000000000000e0 0.000000000000000e0 0.000000000000000e0 0.000000000000000e0
0.000000000000000e0 0.000000000000000e0 0.000000000000000e0 0.000000000000000e0
-8.485316858810000e0 2.010964322400000e2 -1.585075330710000e3 6.029697740540001e3
-1.256949109180000e4 1.469384288120000e4 -9.046424934460001e3 2.285825516580001e3
0.000000000000000e0 0.000000000000000e0 0.000000000000000e0 0.000000000000000e0
0.000000000000000e0 0.000000000000000e0 0.000000000000000e0 0.000000000000000e0
0.000000000000000e0 0.000000000000000e0 0.000000000000000e0 0.000000000000000e0
0.000000000000000e0 0.000000000000000e0 0.000000000000000e0 0.000000000000000e0
1.448679034690000e1 -4.843630302920000e1 -2.482291013410000e1 5.250385846130001e2
-1.492456679250000e3 2.040442628650000e3 -1.395699430650000e3 3.818025937460001e2
0.000000000000000e0 0.000000000000000e0 0.000000000000000e0 0.000000000000000e0
0.000000000000000e0 0.000000000000000e0 0.000000000000000e0 0.000000000000000e0
0.000000000000000e0 0.000000000000000e0 0.000000000000000e0 0.000000000000000e0
0.000000000000000e0 0.000000000000000e0 0.000000000000000e0 0.000000000000000e0
0.000000000000000e0 0.000000000000000e0 0.000000000000000e0 0.000000000000000e0
0.000000000000000e0 0.000000000000000e0 0.000000000000000e0 0.000000000000000e0
0.000000000000000e0 0.000000000000000e0 0.000000000000000e0 0.000000000000000e0
0.000000000000000e0 0.000000000000000e0 0.000000000000000e0 0.000000000000000e0
9.374200474049999e0 -3.383531816850001e1 -1.107018337740000e1 3.466917778240000e2
-1.004389265180000e3 1.381042375320000e3 -9.470817892850000e2 2.594793288860000e2
0.000000000000000e0 0.000000000000000e0 0.000000000000000e0 0.000000000000000e0
0.000000000000000e0 0.000000000000000e0 0.000000000000000e0 0.000000000000000e0
0.000000000000000e0 0.000000000000000e0 0.000000000000000e0 0.000000000000000e0
0.000000000000000e0 0.000000000000000e0 0.000000000000000e0 0.000000000000000e0
0.000000000000000e0 0.000000000000000e0 0.000000000000000e0 0.000000000000000e0
0.000000000000000e0 0.000000000000000e0 0.000000000000000e0 0.000000000000000e0
4.600090236200000e0 -2.209432546080000e1 4.021445714040000e1 -1.286301815620000e1
-8.448655606640001e1 1.676699394520000e2 -1.322835038400000e2 3.924261138400000e1
0.000000000000000e0 0.000000000000000e0 0.000000000000000e0 0.000000000000000e0
0.000000000000000e0 0.000000000000000e0 0.000000000000000e0 0.000000000000000e0
5.404001526820000e0 4.099078796400000e1 -5.884917176150001e2 2.617115454130000e3
-5.926301135340001e3 7.336286162010002e3 -4.719257190860001e3 1.235078234620000e3
0.000000000000000e0 0.000000000000000e0 0.000000000000000e0 0.000000000000000e0
0.000000000000000e0 0.000000000000000e0 0.000000000000000e0 0.000000000000000e0
0.000000000000000e0 0.000000000000000e0 0.000000000000000e0 0.000000000000000e0
0.000000000000000e0 0.000000000000000e0 0.000000000000000e0 0.000000000000000e0
8.203383515390000e0 -3.036537694670000e1 4.615833175880001e1 -1.391804968750000e1
-7.958452194740001e1 1.548737258710000e2 -1.209737266310000e2 3.572879245720000e1
0.000000000000000e0 0.000000000000000e0 0.000000000000000e0 0.000000000000000e0
0.000000000000000e0 0.000000000000000e0 0.000000000000000e0 0.000000000000000e0
2.024961123390000e1 4.260871981500000e1 -1.061505409450000e3 4.917340803580001e3
-1.121866494410000e4 1.390738716030000e4 -8.945888457820002e3 2.340194208570000e3
0.000000000000000e0 0.000000000000000e0 0.000000000000000e0 0.000000000000000e0
0.000000000000000e0 0.000000000000000e0 0.000000000000000e0 0.000000000000000e0
0.000000000000000e0 0.000000000000000e0 0.000000000000000e0 0.000000000000000e0
0.000000000000000e0 0.000000000000000e0 0.000000000000000e0 0.000000000000000e0
0.000000000000000e0 0.000000000000000e0 0.000000000000000e0 0.000000000000000e0
0.000000000000000e0 0.000000000000000e0 0.000000000000000e0 0.000000000000000e0
-4.358698578380000e0 1.199450328380000e1 -1.254628927010000e1 -5.807394528030000e0
4.197120045180000e1 -6.428474704030001e1 4.549938841380000e1 -1.263948824100000e1
0.000000000000000e0 0.000000000000000e0 0.000000000000000e0 0.000000000000000e0
0.000000000000000e0 0.000000000000000e0 0.000000000000000e0 0.000000000000000e0
-2.997557120710000e0 -1.642148261050000e2 1.498190844790000e3 -5.811884181410000e3
1.214708030970000e4 -1.419312479320000e4 8.728228367460003e3 -2.202678792740000e3
0.000000000000000e0 0.000000000000000e0 0.000000000000000e0 0.000000000000000e0
0.000000000000000e0 0.000000000000000e0 0.000000000000000e0 0.000000000000000e0
0.000000000000000e0 0.000000000000000e0 0.000000000000000e0 0.000000000000000e0
0.000000000000000e0 0.000000000000000e0 0.000000000000000e0 0.000000000000000e0
8.277803266690000e0 -2.383084446780000e1 2.891921266910000e1 -4.961509764340000e0
-4.632464127620000e1 8.066543469200001e1 -5.918153580470000e1 1.671321350560000e1
0.000000000000000e0 0.000000000000000e0 0.000000000000000e0 0.000000000000000e0
0.000000000000000e0 0.000000000000000e0 0.000000000000000e0 0.000000000000000e0
4.961151289110000e0 3.127945670500000e2 -2.837750355370000e3 1.099910801680000e4
-2.298325697720000e4 2.685148127930001e4 -1.651126882010000e4 4.166537635510000e3
0.000000000000000e0 0.000000000000000e0 0.000000000000000e0 0.000000000000000e0
0.000000000000000e0 0.000000000000000e0 0.000000000000000e0 0.000000000000000e0
0.000000000000000e0 0.000000000000000e0 0.000000000000000e0 0.000000000000000e0
0.000000000000000e0 0.000000000000000e0 0.000000000000000e0 0.000000000000000e0
0.000000000000000e0 0.000000000000000e0 0.000000000000000e0 0.000000000000000e0
0.000000000000000e0 0.000000000000000e0 0.000000000000000e0 0.000000000000000e0
-6.239942110270000e0 5.347549417210001e-1 1.898782311120000e2 -9.310268722490001e2
2.142671752230001e3 -2.657076519260001e3 1.706346743090000e3 -4.454185165860000e2
0.000000000000000e0 0.000000000000000e0 0.000000000000000e0 0.000000000000000e0
0.000000000000000e0 0.000000000000000e0 0.000000000000000e0 0.000000000000000e0
0.000000000000000e0 0.000000000000000e0 0.000000000000000e0 0.000000000000000e0
0.000000000000000e0 0.000000000000000e0 0.000000000000000e0 0.000000000000000e0
0.000000000000000e0 0.000000000000000e0 0.000000000000000e0 0.000000000000000e0
0.000000000000000e0 0.000000000000000e0 0.000000000000000e0 0.000000000000000e0
0.000000000000000e0 0.000000000000000e0 0.000000000000000e0 0.000000000000000e0
0.000000000000000e0 0.000000000000000e0 0.000000000000000e0 0.000000000000000e0
-4.673864643580000e0 3.370464413770000e0 1.076790334500000e2 -5.432226440710000e2
1.254780985720000e3 -1.557225853390000e3 1.000324615510000e3 -2.611703977250000e2
0.000000000000000e0 0.000000000000000e0 0.000000000000000e0 0.000000000000000e0
0.000000000000000e0 0.000000000000000e0 0.000000000000000e0 0.000000000000000e0
0.000000000000000e0 0.000000000000000e0 0.000000000000000e0 0.000000000000000e0
0.000000000000000e0 0.000000000000000e0 0.000000000000000e0 0.000000000000000e0
0.000000000000000e0 0.000000000000000e0 0.000000000000000e0 0.000000000000000e0
0.000000000000000e0 0.000000000000000e0 0.000000000000000e0 0.000000000000000e0
-2.443386266920000e0 1.081343816930000e1 -8.995582789889999e0 -4.332233348520000e1
1.508471848440000e2 -2.143145213880000e2 1.481337725130000e2 -4.064891957200000e1
0.000000000000000e0 0.000000000000000e0 0.000000000000000e0 0.000000000000000e0
0.000000000000000e0 0.000000000000000e0 0.000000000000000e0 0.000000000000000e0
3.735261720130000e0 -1.089975350810000e2 8.751099130060002e2 -3.336885093020001e3
6.957203806380001e3 -8.131121258520002e3 5.004461722580001e3 -1.264120631340000e3
0.000000000000000e0 0.000000000000000e0 0.000000000000000e0 0.000000000000000e0
0.000000000000000e0 0.000000000000000e0 0.000000000000000e0 0.000000000000000e0
0.000000000000000e0 0.000000000000000e0 0.000000000000000e0 0.000000000000000e0
0.000000000000000e0 0.000000000000000e0 0.000000000000000e0 0.000000000000000e0
-4.358698578380000e0 1.199450328380000e1 -1.254628927010000e1 -5.807394528030000e0
4.197120045180000e1 -6.428474704030001e1 4.549938841380000e1 -1.263948824100000e1
0.000000000000000e0 0.000000000000000e0 0.000000000000000e0 0.000000000000000e0
0.000000000000000e0 0.000000000000000e0 0.000000000000000e0 0.000000000000000e0
-2.997557120710000e0 -1.642148261050000e2 1.498190844790000e3 -5.811884181410000e3
1.214708030970000e4 -1.419312479320000e4 8.728228367460003e3 -2.202678792740000e3
0.000000000000000e0 0.000000000000000e0 0.000000000000000e0 0.000000000000000e0
0.000000000000000e0 0.000000000000000e0 0.000000000000000e0 0.000000000000000e0
-3.855743337700001e-2 2.813408894840000e0 -6.044823898360000e0 8.058556771439999e0
-1.036020470190000e1 1.110740291510000e1 -7.128484416730000e0 1.918126735030000e0
0.000000000000000e0 0.000000000000000e0 0.000000000000000e0 0.000000000000000e0
0.000000000000000e0 0.000000000000000e0 0.000000000000000e0 0.000000000000000e0
2.509082998020000e0 -5.077018336840000e0 6.963215612150000e0 -1.359320849140000e1
2.589683711690000e1 -3.094553108260000e1 1.969843500160000e1 -5.131638612470000e0
0.000000000000000e0 0.000000000000000e0 0.000000000000000e0 0.000000000000000e0
0.000000000000000e0 0.000000000000000e0 0.000000000000000e0 0.000000000000000e0
-8.154244357380000e0 2.632506845930001e2 -1.924909542150000e3 6.820073569690002e3
-1.344278280760000e4 1.502909523920000e4 -8.923519465830003e3 2.188295537430001e3
5.953968781600000e-2 -5.199764786860000e0 1.116300361530000e1 -1.244362846330000e1
1.069881153750000e1 -7.981555372130000e0 4.201958013080000e0 -1.024684643980000e0
0.000000000000000e0 0.000000000000000e0 0.000000000000000e0 0.000000000000000e0
0.000000000000000e0 0.000000000000000e0 0.000000000000000e0 0.000000000000000e0
-4.799240104590000e0 1.055866355490000e1 -1.608265613090000e1 3.300785895720000e1
-6.294459566760001e1 7.506728657680000e1 -4.777453636330001e1 1.245031845540000e1
0.000000000000000e0 0.000000000000000e0 0.000000000000000e0 0.000000000000000e0
0.000000000000000e0 0.000000000000000e0 0.000000000000000e0 0.000000000000000e0
1.627375957280000e1 -5.041874493370000e2 3.677502118280001e3 -1.302477801320000e4
2.566991209090001e4 -2.869736905460001e4 1.703824294380000e4 -4.178078725430001e3
0.000000000000000e0 0.000000000000000e0 0.000000000000000e0 0.000000000000000e0
0.000000000000000e0 0.000000000000000e0 0.000000000000000e0 0.000000000000000e0
0.000000000000000e0 0.000000000000000e0 0.000000000000000e0 0.000000000000000e0
0.000000000000000e0 0.000000000000000e0 0.000000000000000e0 0.000000000000000e0
1.019459556800000e1 3.952993937920000e0 -3.780453924450000e2 1.828032970550001e3
-4.198196326760001e3 5.203843143940001e3 -3.341611233410000e3 8.722981210440002e2
0.000000000000000e0 0.000000000000000e0 0.000000000000000e0 0.000000000000000e0
0.000000000000000e0 0.000000000000000e0 0.000000000000000e0 0.000000000000000e0
0.000000000000000e0 0.000000000000000e0 0.000000000000000e0 0.000000000000000e0
0.000000000000000e0 0.000000000000000e0 0.000000000000000e0 0.000000000000000e0
0.000000000000000e0 0.000000000000000e0 0.000000000000000e0 0.000000000000000e0
0.000000000000000e0 0.000000000000000e0 0.000000000000000e0 0.000000000000000e0
0.000000000000000e0 0.000000000000000e0 0.000000000000000e0 0.000000000000000e0
0.000000000000000e0 0.000000000000000e0 0.000000000000000e0 0.000000000000000e0
9.073745006939999e0 -5.838070013980000e0 -2.128878974380001e2 1.067939785720000e3
-2.463798986020000e3 3.055878947220001e3 -1.962157739520000e3 5.120957698780001e2
0.000000000000000e0 0.000000000000000e0 0.000000000000000e0 0.000000000000000e0
0.000000000000000e0 0.000000000000000e0 0.000000000000000e0 0.000000000000000e0
0.000000000000000e0 0.000000000000000e0 0.000000000000000e0 0.000000000000000e0
0.000000000000000e0 0.000000000000000e0 0.000000000000000e0 0.000000000000000e0
0.000000000000000e0 0.000000000000000e0 0.000000000000000e0 0.000000000000000e0
0.000000000000000e0 0.000000000000000e0 0.000000000000000e0 0.000000000000000e0
4.322347952830000e0 -1.981532441370000e1 9.401443587999999e0 1.202897185180000e2
-3.791493288980001e2 5.278485217640000e2 -3.620654786300000e2 9.893497615970000e1
0.000000000000000e0 0.000000000000000e0 0.000000000000000e0 0.000000000000000e0
0.000000000000000e0 0.000000000000000e0 0.000000000000000e0 0.000000000000000e0
-8.485316858810000e0 2.010964322400000e2 -1.585075330710000e3 6.029697740540001e3
-1.256949109180000e4 1.469384288120000e4 -9.046424934460001e3 2.285825516580001e3
0.000000000000000e0 0.000000000000000e0 0.000000000000000e0 0.000000000000000e0
0.000000000000000e0 0.000000000000000e0 0.000000000000000e0 0.000000000000000e0
0.000000000000000e0 0.000000000000000e0 0.000000000000000e0 0.000000000000000e0
0.000000000000000e0 0.000000000000000e0 0.000000000000000e0 0.000000000000000e0
8.277803266690000e0 -2.383084446780000e1 2.891921266910000e1 -4.961509764340000e0
-4.632464127620000e1 8.066543469200001e1 -5.918153580470000e1 1.671321350560000e1
0.000000000000000e0 0.000000000000000e0 0.000000000000000e0 0.000000000000000e0
0.000000000000000e0 0.000000000000000e0 0.000000000000000e0 0.000000000000000e0
4.961151289110000e0 3.127945670500000e2 -2.837750355370000e3 1.099910801680000e4
-2.298325697720000e4 2.685148127930001e4 -1.651126882010000e4 4.166537635510000e3
0.000000000000000e0 0.000000000000000e0 0.000000000000000e0 0.000000000000000e0
0.000000000000000e0 0.000000000000000e0 0.000000000000000e0 0.000000000000000e0
5.953968781600000e-2 -5.199764786860000e0 1.116300361530000e1 -1.244362846330000e1
1.069881153750000e1 -7.981555372130000e0 4.201958013080000e0 -1.024684643980000e0
0.000000000000000e0 0.000000000000000e0 0.000000000000000e0 0.000000000000000e0
0.000000000000000e0 0.000000000000000e0 0.000000000000000e0 0.000000000000000e0
-4.799240104590000e0 1.055866355490000e1 -1.608265613090000e1 3.300785895720000e1
-6.294459566760001e1 7.506728657680000e1 -4.777453636330001e1 1.245031845540000e1
0.000000000000000e0 0.000000000000000e0 0.000000000000000e0 0.000000000000000e0
0.000000000000000e0 0.000000000000000e0 0.000000000000000e0 0.000000000000000e0
1.627375957280000e1 -5.041874493370000e2 3.677502118280001e3 -1.302477801320000e4
2.566991209090001e4 -2.869736905460001e4 1.703824294380000e4 -4.178078725430001e3
-2.217542119740000e-2 8.937906533140000e0 -1.763271346820000e1 8.280292821090001e0
1.905374131610000e1 -3.939176902490000e1 3.037793635970000e1 -8.810993664490001e0
0.000000000000000e0 0.000000000000000e0 0.000000000000000e0 0.000000000000000e0
0.000000000000000e0 0.000000000000000e0 0.000000000000000e0 0.000000000000000e0
9.107778653840001e0 -2.086145637160000e1 2.818148517920000e1 -4.480143827600000e1
7.675227591050001e1 -9.022990605120000e1 5.795557612970001e1 -1.531499360690000e1
0.000000000000000e0 0.000000000000000e0 0.000000000000000e0 0.000000000000000e0
0.000000000000000e0 0.000000000000000e0 0.000000000000000e0 0.000000000000000e0
-3.266446097320000e1 9.672818508400001e2 -7.034636487550002e3 2.490381929090001e4
-4.907612974520001e4 5.486111595320001e4 -3.257095688810001e4 7.986711199910002e3
</PP_QFCOEF>
<PP_RINNER>
9.000000000000000e-1 9.000000000000000e-1 9.000000000000000e-1 9.000000000000000e-1
9.000000000000000e-1
</PP_RINNER>
<PP_QIJ.1.1 first_index="1" second_index="1" composite_index="1">
0.000000000000000e0 -4.471611348120000e-13 -1.818831392550000e-12 -4.161629995280000e-12
-7.524013178860001e-12 -1.195634077550000e-11 -1.751094512580000e-11 -2.424220240030000e-11
-3.220660641320000e-11 -4.146284501500000e-11 -5.207187915140000e-11 -6.409702468100003e-11
-7.760403704619999e-11 -9.266119889620001e-11 -1.093394107620000e-10 -1.277122848900000e-10
-1.478562423420000e-10 -1.698506134720000e-10 -1.937777418970000e-10 -2.197230920880000e-10
-2.477753606900000e-10 -2.780265917150000e-10 -3.105722957350000e-10 -3.455115732050000e-10
-3.829472420680001e-10 -4.229859697879999e-10 -4.657384099540001e-10 -5.113193436200002e-10
-5.598478255380001e-10 -6.114473354610002e-10 -6.662459346730000e-10 -7.243764279380000e-10
-7.859765310619999e-10 -8.511890442229999e-10 -9.201620313200001e-10 -9.930490054999998e-10
-1.070009121100000e-9 -1.151207372210000e-9 -1.236814798100000e-9 -1.327008695740000e-9
-1.421972839640000e-9 -1.521897709250000e-9 -1.626980724260000e-9 -1.737426487950000e-9
-1.853447038970000e-9 -1.975262111730000e-9 -2.103099405880000e-9 -2.237194864910000e-9
-2.377792964460000e-9 -2.525147010480000e-9 -2.679519447730001e-9 -2.841182178770000e-9
-3.010416894030000e-9 -3.187515413180000e-9 -3.372780038210000e-9 -3.566523918700001e-9
-3.769071429560000e-9 -3.980758561880000e-9 -4.201933326990000e-9 -4.432956174590000e-9
-4.674200425150000e-9 -4.926052717140000e-9 -5.188913469600001e-9 -5.463197360610000e-9
-5.749333822160001e-9 -6.047767551950001e-9 -6.358959042840000e-9 -6.683385130249999e-9
-7.021539558579999e-9 -7.373933566800001e-9 -7.741096494240001e-9 -8.123576407080002e-9
-8.521940746379999e-9 -8.936776998000001e-9 -9.368693386000000e-9 -9.818319589170002e-9
-1.028630748250000e-8 -1.077333190380000e-8 -1.128009144670000e-8 -1.180730928090000e-8
-1.235573399960000e-8 -1.292614049750000e-8 -1.351933087720000e-8 -1.413613538770000e-8
-1.477741339430000e-8 -1.544405438210000e-8 -1.613697899370000e-8 -1.685714010190000e-8
-1.760552391990000e-8 -1.838315114860000e-8 -1.919107816339999e-8 -2.003039824210000e-8
-2.090224283340000e-8 -2.180778287000000e-8 -2.274823012600000e-8 -2.372483862060001e-8
-2.473890606960000e-8 -2.579177538710000e-8 -2.688483623730000e-8 -2.801952664040000e-8
-2.919733463260000e-8 -3.041979998300000e-8 -3.168851596900000e-8 -3.300513121200000e-8
-3.437135157630000e-8 -3.578894213210001e-8 -3.725972918610000e-8 -3.878560238039999e-8
-4.036851686420000e-8 -4.201049553830001e-8 -4.371363137680001e-8 -4.548008982820000e-8
-4.731211129700000e-8 -4.921201371200000e-8 -5.118219517979999e-8 -5.322513673040000e-8
-5.534340515570001e-8 -5.753965594469999e-8 -5.981663631850001e-8 -6.217718836960002e-8
-6.462425230640001e-8 -6.716086981050000e-8 -6.979018750610000e-8 -7.251546054899999e-8
-7.534005633750001e-8 -7.826745834889999e-8 -8.130127010790000e-8 -8.444521928890001e-8
-8.770316195930000e-8 -9.107908696590000e-8 -9.457712047080001e-8 -9.820153064300001e-8
-1.019567325080000e-7 -1.058472929650000e-7 -1.098779359690000e-7 -1.140535478990000e-7
-1.183791830980000e-7 -1.228600696120000e-7 -1.275016151130000e-7 -1.323094130360000e-7
-1.372892489140000e-7 -1.424471069330000e-7 -1.477891767150000e-7 -1.533218603219999e-7
-1.590517795030000e-7 -1.649857831910000e-7 -1.711309552520000e-7 -1.774946224910000e-7
-1.840843629450000e-7 -1.909080144470000e-7 -1.979736834810000e-7 -2.052897543460000e-7
-2.128648986240000e-7 -2.207080849780000e-7 -2.288285892710000e-7 -2.372360050440000e-7
-2.459402543430000e-7 -2.549515989070000e-7 -2.642806517530000e-7 -2.739383891440000e-7
-2.839361629630000e-7 -2.942857135140000e-7 -3.049991827580000e-7 -3.160891279920000e-7
-3.275685360010000e-7 -3.394508376929999e-7 -3.517499232220000e-7 -3.644801576279999e-7
-3.776563970280000e-7 -3.912940053220001e-7 -4.054088715050000e-7 -4.200174275379998e-7
-4.351366668480000e-7 -4.507841634460000e-7 -4.669780916970000e-7 -4.837372467680000e-7
-5.010810657660000e-7 -5.190296495990000e-7 -5.376037855800000e-7 -5.568249707980000e-7
-5.767154362890000e-7 -5.972981720260000e-7 -6.185969527610000e-7 -6.406363647480000e-7
-6.634418333729998e-7 -6.870396517290001e-7 -7.114570101560000e-7 -7.367220268000001e-7
-7.628637792010001e-7 -7.899123369520000e-7 -8.178987955030001e-7 -8.468553110679998e-7
-8.768151367609999e-7 -9.078126599379999e-7 -9.398834408410000e-7 -9.730642525180000e-7
-1.007393122130000e-6 -1.042909373680000e-6 -1.079653672170000e-6 -1.117668069250000e-6
-1.156996050480000e-6 -1.197682584180000e-6 -1.239774171910000e-6 -1.283318900700000e-6
-1.328366497080000e-6 -1.374968382960000e-6 -1.423177733330000e-6 -1.473049536040000e-6
-1.524640653610000e-6 -1.578009887010000e-6 -1.633218041850000e-6 -1.690327996620000e-6
-1.749404773400000e-6 -1.810515610910000e-6 -1.873730040100000e-6 -1.939119962310000e-6
-2.006759730110000e-6 -2.076726230880000e-6 -2.149098973310000e-6 -2.223960176780000e-6
-2.301394863890000e-6 -2.381490956080000e-6 -2.464339372579999e-6 -2.550034132760000e-6
-2.638672461920000e-6 -2.730354900780000e-6 -2.825185418690000e-6 -2.923271530770000e-6
-3.024724419010000e-6 -3.129659057580001e-6 -3.238194342430000e-6 -3.350453225360001e-6
-3.466562852640001e-6 -3.586654708540000e-6 -3.710864763630000e-6 -3.839333628360000e-6
-3.972206711740000e-6 -4.109634385720000e-6 -4.251772155039999e-6 -4.398780833060000e-6
-4.550826723660000e-6 -4.708081809340000e-6 -4.870723945979999e-6 -5.038937064130000e-6
-5.212911377500000e-6 -5.392843598540001e-6 -5.578937161480001e-6 -5.771402453230000e-6
-5.970457052140000e-6 -6.176325975249998e-6 -6.389241933960000e-6 -6.609445598710001e-6
-6.837185872900000e-6 -7.072720176180001e-6 -7.316314738000001e-6 -7.568244900940000e-6
-7.828795435099999e-6 -8.098260863170001e-6 -8.376945797059999e-6 -8.665165286339999e-6
-8.963245178790002e-6 -9.271522493820001e-6 -9.590345808870000e-6 -9.920075659479998e-6
-1.026108495350000e-5 -1.061375940020000e-5 -1.097849795350000e-5 -1.135571327290000e-5
-1.174583219830000e-5 -1.214929624390000e-5 -1.256656210820000e-5 -1.299810220290000e-5
-1.344440520050000e-5 -1.390597660120000e-5 -1.438333932040000e-5 -1.487703429780000e-5
-1.538762112670000e-5 -1.591567870830000e-5 -1.646180592710000e-5 -1.702662235300000e-5
-1.761076896710000e-5 -1.821490891470000e-5 -1.883972828550000e-5 -1.948593692210000e-5
-2.015426925809999e-5 -2.084548518680000e-5 -2.156037096190000e-5 -2.229974013100000e-5
-2.306443450370000e-5 -2.385532515580000e-5 -2.467331346970000e-5 -2.551933221440000e-5
-2.639434666540000e-5 -2.729935576620000e-5 -2.823539333310000e-5 -2.920352930590000e-5
-3.020487104509999e-5 -3.124056467810000e-5 -3.231179649690000e-5 -3.341979440790000e-5
-3.456582943830000e-5 -3.575121729850000e-5 -3.697732000600000e-5 -3.824554757050000e-5
-3.955735974540000e-5 -4.091426784510000e-5 -4.231783663610000e-5 -4.376968629860000e-5
-4.527149446730000e-5 -4.682499835190001e-5 -4.843199694050000e-5 -5.009435329200000e-5
-5.181399691779999e-5 -5.359292626049999e-5 -5.543321127100000e-5 -5.733699609030001e-5
-5.930650183910000e-5 -6.134402952159999e-5 -6.345196304720000e-5 -6.563277237660001e-5
-6.788901679849999e-5 -7.022334834030000e-5 -7.263851532229999e-5 -7.513736605930000e-5
-7.772285271920001e-5 -8.039803534350000e-5 -8.316608603870000e-5 -8.603029334690000e-5
-8.899406680329999e-5 -9.206094169060000e-5 -9.523458399950000e-5 -9.851879560519999e-5
-1.019175196690000e-4 -1.054348462830000e-4 -1.090750183550000e-4 -1.128424377660000e-4
-1.167416717990000e-4 -1.207774598510000e-4 -1.249547204610000e-4 -1.292785586480000e-4
-1.337542735870000e-4 -1.383873666420000e-4 -1.431835497640000e-4 -1.481487542910000e-4
-1.532891401440000e-4 -1.586111054700000e-4 -1.641212967360000e-4 -1.698266193030000e-4
-1.757342485050000e-4 -1.818516412690000e-4 -1.881865482870000e-4 -1.947470267890000e-4
-2.015414539410000e-4 -2.085785408950000e-4 -2.158673475500000e-4 -2.234172980339999e-4
-2.312381969640000e-4 -2.393402465370000e-4 -2.477340644740000e-4 -2.564307028810000e-4
-2.654416680780000e-4 -2.747789414510000e-4 -2.844550013759999e-4 -2.944828462930000e-4
-3.048760189810000e-4 -3.156486321130000e-4 -3.268153951570000e-4 -3.383916427170000e-4
-3.503933643750000e-4 -3.628372361409999e-4 -3.757406536010000e-4 -3.891217668570000e-4
-4.029995173700001e-4 -4.173936768280000e-4 -4.323248881330001e-4 -4.478147086660000e-4
-4.638856559480001e-4 -4.805612558400001e-4 -4.978660934420001e-4 -5.158258668600001e-4
-5.344674439909999e-4 -5.538189225379999e-4 -5.739096934290000e-4 -5.947705078650001e-4
-6.164335482089999e-4 -6.389325029390001e-4 -6.623026459550001e-4 -6.865809204550000e-4
-7.118060276990001e-4 -7.380185209570000e-4 -7.652609049270000e-4 -7.935777410380000e-4
-8.230157588950000e-4 -8.536239743499998e-4 -8.854538145439999e-4 -9.185592503840001e-4
-9.529969368969999e-4 -9.888263619690001e-4 -1.026110003990000e-3 -1.064913498950000e-3
-1.105305817570000e-3 -1.147359453120000e-3 -1.191150620550000e-3 -1.236759467720000e-3
-1.284270299370000e-3 -1.333771814660000e-3 -1.385357359300000e-3 -1.439125192850000e-3
-1.495178772390000e-3 -1.553627053600000e-3 -1.614584810050000e-3 -1.678172972210000e-3
-1.744518987150000e-3 -1.813757200240000e-3 -1.886029260360000e-3 -1.961484549900000e-3
-2.040280641240000e-3 -2.122583781230000e-3 -2.208569405400000e-3 -2.298422683910000e-3
-2.392339100900000e-3 -2.490525069520000e-3 -2.593198584700000e-3 -2.700589916130000e-3
-2.812942343560000e-3 -2.930512937390000e-3 -3.053573386970000e-3 -3.182410879740000e-3
-3.317329033980000e-3 -3.458648888620000e-3 -3.606709953420000e-3 -3.761871323079999e-3
-3.924512858989999e-3 -4.095036442770001e-3 -4.273867305580000e-3 -4.461455437790001e-3
-4.658277083420000e-3 -4.864836324410000e-3 -5.081666759750001e-3 -5.309333284690000e-3
-5.548433975930001e-3 -5.799602088220000e-3 -6.063508169069999e-3 -6.340862297329998e-3
-6.632416452939999e-3 -6.938967024240000e-3 -7.261357460619999e-3 -7.600481077440000e-3
-7.957284021610000e-3 -8.332768405300000e-3 -8.727995616639999e-3 -9.144089815459999e-3
-9.582241623200000e-3 -1.004371201600000e-2 -1.052983642990000e-2 -1.104202908760000e-2
-1.158178755670000e-2 -1.215069754810000e-2 -1.275043796500000e-2 -1.338278621160000e-2
-1.404962377080000e-2 -1.475294206090000e-2 -1.549484857940000e-2 -1.627757334300000e-2
-1.710347563220000e-2 -1.797505104690000e-2 -1.889493888130000e-2 -1.986592982210000e-2
-2.089097397560000e-2 -2.197318922670000e-2 -2.311586993070000e-2 -2.432249593790000e-2
-2.559674194810000e-2 -2.694248718960000e-2 -2.836382541440000e-2 -2.986507519730000e-2
-3.145079052450000e-2 -3.312577164950000e-2 -3.489507619290000e-2 -3.676403045429999e-2
-3.873824089880000e-2 -4.082360577550000e-2 -4.302632681270000e-2 -4.535292093160001e-2
-4.781023190580000e-2 -5.040544188569999e-2 -5.314608269330000e-2 -5.604004678170000e-2
-5.909559773610001e-2 -6.232138018240000e-2 -6.572642894550000e-2 -6.932017728840000e-2
-7.311246403569999e-2 -7.711353937069999e-2 -8.133406906499999e-2 -8.578513688150000e-2
-9.047824485880000e-2 -9.542531116310000e-2 -1.006386651600000e-1 -1.061310393330000e-1
-1.119155576320000e-1 -1.180057198280000e-1 -1.244153813780000e-1 -1.311587283230000e-1
-1.382502466430000e-1 -1.457046855430000e-1 -1.535370140260000e-1 -1.617623701640000e-1
-1.703960023870000e-1 -1.794532021460000e-1 -1.889492272510000e-1 -1.988992152130000e-1
-2.093180859040000e-1 -2.202204328810000e-1 -2.316204027390000e-1 -2.435315619260000e-1
-2.559667504810000e-1 -2.689379223120000e-1 -2.824559716620000e-1 -2.965305456300000e-1
-3.111698427330000e-1 -3.263803977270000e-1 -3.421668531390000e-1 -3.585317182460000e-1
-3.754751165320000e-1 -3.929945230570000e-1 -4.110844935010000e-1 -4.297363871270000e-1
-4.489380863300000e-1 -4.686737159120000e-1 -4.889233657110000e-1 -5.096628206640000e-1
-5.308633028339999e-1 -5.524912302830000e-1 -5.745079979750000e-1 -5.968697860190000e-1
-6.195274005520000e-1 -6.424261522609999e-1 -6.655057770140001e-1 -6.887004021380000e-1
-7.119385605350001e-1 -7.351432530449999e-1 -7.582320570799999e-1 -7.811172766860000e-1
-8.037061257330000e-1 -8.259009319760001e-1 -8.475993454360001e-1 -8.686945300750001e-1
-8.890753135210000e-1 -9.086262661030000e-1 -9.272276784750000e-1 -9.447554076330000e-1
-9.610805654770001e-1 -9.760690339120000e-1 -9.895808078390001e-1 -1.001469194560000e0
-1.011579937660000e0 -1.019750388050000e0 -1.025808916050000e0 -1.029574847980000e0
-1.030859316140000e0 -1.029467527230000e0 -1.025203067910000e0 -1.017874952810000e0
-1.007308137860000e0 -9.933581003360000e-1 -9.759297163570000e-1 -9.549998765590001e-1
-9.306418124289999e-1 -9.030465749150000e-1 -8.725329463550000e-1 -8.395304513800001e-1
-8.045098714670001e-1 -7.678395592760000e-1 -7.297648305099999e-1 -6.905293377990001e-1
-6.503888235960000e-1 -6.096086186590000e-1 -5.684608200470000e-1 -5.272211984100000e-1
-4.861658922310000e-1 -4.455679152970000e-1 -4.056935726500000e-1 -3.667988485850000e-1
-3.291259120740000e-1 -2.928998478130000e-1 -2.583257966120000e-1 -2.255866169680000e-1
-1.948412003490000e-1 -1.662234191720000e-1 -1.398416203230000e-1 -1.157783745120000e-1
-9.409015391970000e-2 -7.480656151150001e-2 -5.792892974750000e-2 -4.342830663720000e-2
-3.124315207000000e-2 -2.127720547700000e-2 -1.339805039940000e-2 -7.436804152800001e-3
-3.189298030380000e-3 -4.191037421360000e-4 1.137102621620000e-3 1.761149528710000e-3
1.741091636910000e-3 1.354234012360000e-3 8.451876990890000e-4 4.001498341370000e-4
1.216895270770000e-4 1.415288854180000e-5 1.199664398660000e-7 0.000000000000000e0
0.000000000000000e0 0.000000000000000e0 0.000000000000000e0 0.000000000000000e0
0.000000000000000e0 0.000000000000000e0 0.000000000000000e0 0.000000000000000e0
0.000000000000000e0 0.000000000000000e0 0.000000000000000e0 0.000000000000000e0
0.000000000000000e0 0.000000000000000e0 0.000000000000000e0 0.000000000000000e0
0.000000000000000e0 0.000000000000000e0 0.000000000000000e0 0.000000000000000e0
0.000000000000000e0 0.000000000000000e0 0.000000000000000e0 0.000000000000000e0
0.000000000000000e0 0.000000000000000e0 0.000000000000000e0 0.000000000000000e0
0.000000000000000e0 0.000000000000000e0 0.000000000000000e0 0.000000000000000e0
0.000000000000000e0 0.000000000000000e0 0.000000000000000e0 0.000000000000000e0
0.000000000000000e0 0.000000000000000e0 0.000000000000000e0 0.000000000000000e0
0.000000000000000e0 0.000000000000000e0 0.000000000000000e0 0.000000000000000e0
0.000000000000000e0 0.000000000000000e0 0.000000000000000e0 0.000000000000000e0
0.000000000000000e0 0.000000000000000e0 0.000000000000000e0 0.000000000000000e0
0.000000000000000e0 0.000000000000000e0 0.000000000000000e0 0.000000000000000e0
0.000000000000000e0 0.000000000000000e0 0.000000000000000e0 0.000000000000000e0
0.000000000000000e0 0.000000000000000e0 0.000000000000000e0 0.000000000000000e0
0.000000000000000e0 0.000000000000000e0 0.000000000000000e0 0.000000000000000e0
0.000000000000000e0 0.000000000000000e0 0.000000000000000e0 0.000000000000000e0
0.000000000000000e0 0.000000000000000e0 0.000000000000000e0 0.000000000000000e0
0.000000000000000e0 0.000000000000000e0 0.000000000000000e0 0.000000000000000e0
0.000000000000000e0 0.000000000000000e0 0.000000000000000e0 0.000000000000000e0
0.000000000000000e0 0.000000000000000e0 0.000000000000000e0 0.000000000000000e0
0.000000000000000e0 0.000000000000000e0 0.000000000000000e0 0.000000000000000e0
0.000000000000000e0 0.000000000000000e0 0.000000000000000e0 0.000000000000000e0
0.000000000000000e0 0.000000000000000e0 0.000000000000000e0 0.000000000000000e0
0.000000000000000e0 0.000000000000000e0 0.000000000000000e0 0.000000000000000e0
0.000000000000000e0 0.000000000000000e0 0.000000000000000e0 0.000000000000000e0
0.000000000000000e0 0.000000000000000e0 0.000000000000000e0 0.000000000000000e0
0.000000000000000e0 0.000000000000000e0 0.000000000000000e0 0.000000000000000e0
0.000000000000000e0 0.000000000000000e0 0.000000000000000e0 0.000000000000000e0
0.000000000000000e0 0.000000000000000e0 0.000000000000000e0 0.000000000000000e0
0.000000000000000e0 0.000000000000000e0 0.000000000000000e0 0.000000000000000e0
0.000000000000000e0 0.000000000000000e0 0.000000000000000e0 0.000000000000000e0
0.000000000000000e0 0.000000000000000e0 0.000000000000000e0 0.000000000000000e0
0.000000000000000e0 0.000000000000000e0 0.000000000000000e0 0.000000000000000e0
0.000000000000000e0 0.000000000000000e0 0.000000000000000e0 0.000000000000000e0
0.000000000000000e0 0.000000000000000e0 0.000000000000000e0 0.000000000000000e0
0.000000000000000e0 0.000000000000000e0 0.000000000000000e0 0.000000000000000e0
0.000000000000000e0 0.000000000000000e0 0.000000000000000e0 0.000000000000000e0
0.000000000000000e0 0.000000000000000e0 0.000000000000000e0 0.000000000000000e0
0.000000000000000e0 0.000000000000000e0 0.000000000000000e0 0.000000000000000e0
0.000000000000000e0 0.000000000000000e0 0.000000000000000e0 0.000000000000000e0
0.000000000000000e0 0.000000000000000e0 0.000000000000000e0 0.000000000000000e0
0.000000000000000e0 0.000000000000000e0 0.000000000000000e0 0.000000000000000e0
0.000000000000000e0 0.000000000000000e0 0.000000000000000e0 0.000000000000000e0
0.000000000000000e0 0.000000000000000e0 0.000000000000000e0 0.000000000000000e0
0.000000000000000e0 0.000000000000000e0 0.000000000000000e0 0.000000000000000e0
0.000000000000000e0 0.000000000000000e0 0.000000000000000e0 0.000000000000000e0
0.000000000000000e0 0.000000000000000e0 0.000000000000000e0 0.000000000000000e0
0.000000000000000e0 0.000000000000000e0 0.000000000000000e0 0.000000000000000e0
0.000000000000000e0 0.000000000000000e0 0.000000000000000e0 0.000000000000000e0
0.000000000000000e0 0.000000000000000e0 0.000000000000000e0 0.000000000000000e0
0.000000000000000e0 0.000000000000000e0 0.000000000000000e0 0.000000000000000e0
0.000000000000000e0 0.000000000000000e0 0.000000000000000e0 0.000000000000000e0
0.000000000000000e0 0.000000000000000e0 0.000000000000000e0 0.000000000000000e0
0.000000000000000e0 0.000000000000000e0 0.000000000000000e0 0.000000000000000e0
0.000000000000000e0 0.000000000000000e0 0.000000000000000e0 0.000000000000000e0
0.000000000000000e0 0.000000000000000e0 0.000000000000000e0 0.000000000000000e0
0.000000000000000e0 0.000000000000000e0 0.000000000000000e0 0.000000000000000e0
0.000000000000000e0 0.000000000000000e0 0.000000000000000e0 0.000000000000000e0
0.000000000000000e0 0.000000000000000e0 0.000000000000000e0 0.000000000000000e0
0.000000000000000e0 0.000000000000000e0 0.000000000000000e0 0.000000000000000e0
0.000000000000000e0 0.000000000000000e0 0.000000000000000e0 0.000000000000000e0
0.000000000000000e0 0.000000000000000e0 0.000000000000000e0 0.000000000000000e0
0.000000000000000e0 0.000000000000000e0 0.000000000000000e0 0.000000000000000e0
0.000000000000000e0 0.000000000000000e0 0.000000000000000e0 0.000000000000000e0
0.000000000000000e0 0.000000000000000e0 0.000000000000000e0 0.000000000000000e0
0.000000000000000e0 0.000000000000000e0 0.000000000000000e0 0.000000000000000e0
0.000000000000000e0 0.000000000000000e0 0.000000000000000e0 0.000000000000000e0
0.000000000000000e0 0.000000000000000e0 0.000000000000000e0 0.000000000000000e0
0.000000000000000e0 0.000000000000000e0 0.000000000000000e0 0.000000000000000e0
0.000000000000000e0 0.000000000000000e0 0.000000000000000e0
</PP_QIJ.1.1>
<PP_QIJ.1.2 first_index="1" second_index="2" composite_index="2">
0.000000000000000e0 8.951915168149998e-12 3.641198454070000e-11 8.331349877759997e-11
1.506265245060000e-10 2.393592372620000e-10 3.505593010700000e-10 4.853152962510001e-10
6.447581971389999e-10 8.300629014000000e-10 1.042449812750000e-9 1.283186478900000e-9
1.553589286590000e-9 1.855025215790000e-9 2.188913654910000e-9 2.556728279300000e-9
2.959998995140000e-9 3.400313950920000e-9 3.879321618880000e-9 4.398732948860000e-9
4.960323596889999e-9 5.565936231300000e-9 6.217482918799998e-9 6.916947593400000e-9
7.666388610960000e-9 8.467941392369999e-9 9.323821158269997e-9 1.023632575860000e-8
1.120783860000000e-8 1.224083167500000e-8 1.333786869530000e-8 1.450160833420000e-8
1.573480758070001e-8 1.704032521000000e-8 1.842112537310000e-8 1.988028131170000e-8
2.142097920029999e-8 2.304652212140000e-8 2.476033417810001e-8 2.656596474799999e-8
2.846709288480000e-8 3.046753187070000e-8 3.257123392630001e-8 3.478229508300000e-8
3.710496022270000e-8 3.954362829129999e-8 4.210285769250000e-8 4.478737186590001e-8
4.760206505830000e-8 5.055200829320000e-8 5.364245554520000e-8 5.687885012750000e-8
6.026683129870001e-8 6.381224109649999e-8 6.752113140670000e-8 7.139977127470000e-8
7.545465446830001e-8 7.969250730050002e-8 8.412029672039999e-8 8.874523868230000e-8
9.357480680190001e-8 9.861674130930000e-8 1.038790583100000e-7 1.093700593610000e-7
1.150983413800000e-7 1.210728068910000e-7 1.273026746180000e-7 1.337974904510000e-7
1.405671387790000e-7 1.476218542150000e-7 1.549722337220000e-7 1.626292491550000e-7
1.706042602330000e-7 1.789090279510000e-7 1.875557284590000e-7 1.965569674040001e-7
2.059257947780000e-7 2.156757202610000e-7 2.258207290940000e-7 2.363752984980000e-7
2.473544146480000e-7 2.587735902330000e-7 2.706488826109999e-7 2.829969125920000e-7
2.958348838550000e-7 3.091806030319999e-7 3.230525004840001e-7 3.374696517730000e-7
3.524517998830000e-7 3.680193781860000e-7 3.841935342070000e-7 4.009961541840000e-7
4.184498884820000e-7 4.365781778630000e-7 4.554052806600000e-7 4.749563008759999e-7
4.952572172380001e-7 5.163349132519999e-7 5.382172082720000e-7 5.609328896390000e-7
5.845117459070001e-7 6.089846012130000e-7 6.343833508090000e-7 6.607409978080002e-7
6.880916911920000e-7 7.164707651020001e-7 7.459147794770001e-7 7.764615620729999e-7
8.081502519210000e-7 8.410213442560000e-7 8.751167369869998e-7 9.104797787430002e-7
9.471553185619999e-7 9.851897572669998e-7 1.024631100600000e-6 1.065529014140000e-6
1.107934880160000e-6 1.151901856320000e-6 1.197484936430000e-6 1.244741013290000e-6
1.293728943600000e-6 1.344509615150000e-6 1.397146016270000e-6 1.451703307630000e-6
1.508248896510000e-6 1.566852513600000e-6 1.627586292360000e-6 1.690524851150000e-6
1.755745378150000e-6 1.823327719080000e-6 1.893354468030000e-6 1.965911061290000e-6
2.041085874410000e-6 2.118970322570000e-6 2.199658964310000e-6 2.283249608860000e-6
2.369843427080000e-6 2.459545066180000e-6 2.552462768340000e-6 2.648708493360000e-6
2.748398045480000e-6 2.851651204560000e-6 2.958591861620000e-6 3.069348159090000e-6
3.184052635759999e-6 3.302842376699999e-6 3.425859168250000e-6 3.553249658270000e-6
3.685165521900000e-6 3.821763632840000e-6 3.963206240580000e-6 4.109661153579999e-6
4.261301928650001e-6 4.418308066840000e-6 4.580865215920000e-6 4.749165379800000e-6
4.923407135030001e-6 5.103795854600000e-6 5.290543939510000e-6 5.483871057999999e-6
5.684004393050000e-6 5.891178898270000e-6 6.105637562390001e-6 6.327631682870000e-6
6.557421148680000e-6 6.795274732780000e-6 7.041470394450000e-6 7.296295591970001e-6
7.560047605840001e-6 7.833033873060000e-6 8.115572332650000e-6 8.407991783039998e-6
8.710632251480000e-6 9.023845376030001e-6 9.347994800550000e-6 9.683456583070001e-6
1.003061961800000e-5 1.038988607280000e-5 1.076167183930000e-5 1.114640700030000e-5
1.154453631240000e-5 1.195651970470000e-5 1.238283279490000e-5 1.282396742240000e-5
1.328043220020000e-5 1.375275308460000e-5 1.424147396530000e-5 1.474715727440000e-5
1.527038461730000e-5 1.581175742370000e-5 1.637189762190000e-5 1.695144833500000e-5
1.755107460140000e-5 1.817146411960000e-5 1.881332801770000e-5 1.947740165010000e-5
2.016444542020000e-5 2.087524563150000e-5 2.161061536740000e-5 2.237139540140000e-5
2.315845513700000e-5 2.397269358100000e-5 2.481504034820000e-5 2.568645670170000e-5
2.658793662740000e-5 2.752050794560001e-5 2.848523345950000e-5 2.948321214389999e-5
3.051558037300000e-5 3.158351319050000e-5 3.268822562280000e-5 3.383097403610000e-5
3.501305754040000e-5 3.623581944030000e-5 3.750064873590000e-5 3.880898167350000e-5
4.016230334959999e-5 4.156214936949999e-5 4.301010756099999e-5 4.450781974790000e-5
4.605698358180000e-5 4.765935443740000e-5 4.931674737120001e-5 5.103103914729999e-5
5.280417033100000e-5 5.463814745440000e-5 5.653504525420000e-5 5.849700898650000e-5
6.052625681930000e-5 6.262508230629999e-5 6.479585694469998e-5 6.704103281920002e-5
6.936314533620001e-5 7.176481605020001e-5 7.424875558629999e-5 7.681776666110000e-5
7.947474720680001e-5 8.222269360020002e-5 8.506470400220000e-5 8.800398180930001e-5
9.104383922249999e-5 9.418770093740001e-5 9.743910795840000e-5 1.008017215430000e-4
1.042793272800000e-4 1.078758393030000e-4 1.115953046500000e-4 1.154419077690000e-4
1.194199751780000e-4 1.235339802780000e-4 1.277885483320000e-4 1.321884616180000e-4
1.367386647430000e-4 1.414442701500000e-4 1.463105638070000e-4 1.513430110810000e-4
1.565472628270000e-4 1.619291616630000e-4 1.674947484770000e-4 1.732502691370000e-4
1.792021814410000e-4 1.853571622940000e-4 1.917221151310000e-4 1.983041775920000e-4
2.051107294500000e-4 2.121494008180000e-4 2.194280806230000e-4 2.269549253710000e-4
2.347383682100000e-4 2.427871282950000e-4 2.511102204720000e-4 2.597169652870001e-4
2.686169993390000e-4 2.778202859730000e-4 2.873371263410000e-4 2.971781708360000e-4
3.073544309100000e-4 3.178772912880000e-4 3.287585226050000e-4 3.400102944529999e-4
3.516451888850000e-4 3.636762143610000e-4 3.761168201709999e-4 3.889809113440000e-4
4.022828640600000e-4 4.160375415750000e-4 4.302603106919999e-4 4.449670587800000e-4
4.601742113680000e-4 4.758987503340000e-4 4.921582327019999e-4 5.089708100740000e-4
5.263552487160000e-4 5.443309503169999e-4 5.629179734530000e-4 5.821370557609999e-4
6.020096368679999e-4 6.225578820870000e-4 6.438047069090000e-4 6.657738023180000e-4
6.884896609500001e-4 7.119776041420001e-4 7.362638098730000e-4 7.613753416550001e-4
7.873401783840000e-4 8.141872451950000e-4 8.419464453460000e-4 8.706486931769998e-4
9.003259481610000e-4 9.310112501039999e-4 9.627387555139999e-4 9.955437751900000e-4
1.029462813060000e-3 1.064533606340000e-3 1.100795166960000e-3 1.138287824500000e-3
1.177053270400000e-3 1.217134603780000e-3 1.258576378700000e-3 1.301424653030000e-3
1.345727038910000e-3 1.391532754940000e-3 1.438892680040000e-3 1.487859409150000e-3
1.538487310720000e-3 1.590832586190000e-3 1.644953331310000e-3 1.700909599620000e-3
1.758763467940000e-3 1.818579104040000e-3 1.880422836570000e-3 1.944363227260000e-3
2.010471145470000e-3 2.078819845290000e-3 2.149485045050000e-3 2.222545009530000e-3
2.298080634800000e-3 2.376175535860000e-3 2.456916137160000e-3 2.540391766040000e-3
2.626694749240000e-3 2.715920512540000e-3 2.808167683600000e-3 2.903538198230000e-3
3.002137410010000e-3 3.104074203490001e-3 3.209461111020000e-3 3.318414433430000e-3
3.431054364440000e-3 3.547505119209999e-3 3.667895066930000e-3 3.792356867650000e-3
3.921027613510000e-3 4.054048974430000e-3 4.191567348460000e-3 4.333734016830000e-3
4.480705304000000e-3 4.632642742650000e-3 4.789713243950001e-3 4.952089273069999e-3
5.119949030230000e-3 5.293476637420000e-3 5.472862330860000e-3 5.658302659430000e-3
5.850000689250000e-3 6.048166214510000e-3 6.253015974780000e-3 6.464773878940000e-3
6.683671235929999e-3 6.909946992430001e-3 7.143847977749999e-3 7.385629156030000e-3
7.635553885960000e-3 7.893894188240001e-3 8.160931020880001e-3 8.436954562640000e-3
8.722264504680000e-3 9.017170350730000e-3 9.321991725840000e-3 9.637058694059998e-3
9.962712085030001e-3 1.029930382990000e-2 1.064719730660000e-2 1.100676769460000e-2
1.137840233980000e-2 1.176250112870000e-2 1.215947687350000e-2 1.256975570660000e-2
1.299377748660000e-2 1.343199621400000e-2 1.388488045790000e-2 1.435291379380000e-2
1.483659525260000e-2 1.533643977970000e-2 1.585297870700000e-2 1.638676023450000e-2
1.693834992460000e-2 1.750833120720000e-2 1.809730589670000e-2 1.870589471970000e-2
1.933473785550000e-2 1.998449548670000e-2 2.065584836220000e-2 2.134949837100000e-2
2.206616912690000e-2 2.280660656510000e-2 2.357157954850000e-2 2.436188048530000e-2
2.517832595590000e-2 2.602175735099999e-2 2.689304151760000e-2 2.779307141490000e-2
2.872276677800000e-2 2.968307479000000e-2 3.067497076020000e-2 3.169945880950000e-2
3.275757256029999e-2 3.385037583150000e-2 3.497896333620000e-2 3.614446138159999e-2
3.734802857020000e-2 3.859085649940000e-2 3.987417045940000e-2 4.119923012670000e-2
4.256733025220000e-2 4.397980134000000e-2 4.543801031750000e-2 4.694336119130000e-2
4.849729568820000e-2 5.010129387799999e-2 5.175687477380000e-2 5.346559690890000e-2
5.522905888340000e-2 5.704889987930000e-2 5.892680013810000e-2 6.086448139750001e-2
6.286370728100001e-2 6.492628363630000e-2 6.705405881619999e-2 6.924892389520000e-2
7.151281281709999e-2 7.384770246460000e-2 7.625561264500000e-2 7.873860598249999e-2
8.129878770970000e-2 8.393830534919999e-2 8.665934827470000e-2 8.946414714200001e-2
9.235497317830001e-2 9.533413731950001e-2 9.840398918160000e-2 1.015669158530000e-1
1.048253404960000e-1 1.081817207400000e-1 1.116385468510000e-1 1.151983396670000e-1
1.188636482720000e-1 1.226370473940000e-1 1.265211345170000e-1 1.305185266730000e-1
1.346318568990000e-1 1.388637703400000e-1 1.432169199710000e-1 1.476939619090000e-1
1.522975503040000e-1 1.570303317690000e-1 1.618949393220000e-1 1.668939858290000e-1
1.720300568930000e-1 1.773057031750000e-1 1.827234321220000e-1 1.882856990450000e-1
1.939948975400000e-1 1.998533492090000e-1 2.058632926400000e-1 2.120268716240000e-1
2.183461225660000e-1 2.248229610550000e-1 2.314591675730000e-1 2.382563722810000e-1
2.452160388800000e-1 2.523394474910000e-1 2.596276765330000e-1 2.670815835760000e-1
2.747017851230000e-1 2.824886353190000e-1 2.904422035470000e-1 2.985622509110000e-1
3.068482055800000e-1 3.152991369900000e-1 3.239137289060000e-1 3.326902513480000e-1
3.416265313960000e-1 3.507199228890000e-1 3.599672750660000e-1 3.693649001800000e-1
3.789085401450000e-1 3.885933322920000e-1 3.984137743090000e-1 4.083636884790000e-1
4.184361853270000e-1 4.286236268190001e-1 4.389175892730000e-1 4.493088261650000e-1
4.597872310410000e-1 4.703418007620000e-1 4.809605993430000e-1 4.916307226830000e-1
5.023382644820000e-1 5.130682837220000e-1 5.238047740610000e-1 5.345306355710000e-1
5.452276492430000e-1 5.558764547470000e-1 5.664565319310000e-1 5.769461865960000e-1
5.873225410930000e-1 5.975615303300001e-1 6.076379037610000e-1 6.175252339829999e-1
6.271959325449999e-1 6.366212735820000e-1 6.457714258870000e-1 6.546154940110000e-1
6.631215689480000e-1 6.712567889560001e-1 6.789874109770000e-1 6.862788931010000e-1
6.930959884290000e-1 6.994028506290000e-1 7.051631513780000e-1 7.103402098279999e-1
7.148971341000000e-1 7.187969747760000e-1 7.220028902370000e-1 7.244783236790000e-1
7.261871915920000e-1 7.270940834800000e-1 7.271644727170000e-1 7.263649384780000e-1
7.246633989730000e-1 7.220293564369999e-1 7.184341547720000e-1 7.138512512160000e-1
7.082565040350000e-1 7.016284789590000e-1 6.939487778190000e-1 6.852023936869999e-1
6.753780975120000e-1 6.644688618130000e-1 6.524723271490000e-1 6.393913167370000e-1
6.252344032170000e-1 6.100165290590000e-1 5.937596776970000e-1 5.764935858799999e-1
5.582564780750000e-1 5.390957906940001e-1 5.190688365900000e-1 4.982433387340000e-1
4.766977361320000e-1 4.545211363080000e-1 4.318127596990000e-1 4.086806973480000e-1
3.852397938470000e-1 3.616084879530000e-1 3.379045183460000e-1 3.142395701960000e-1
2.907132577180000e-1 2.674073959490000e-1 2.443824405670000e-1 2.216794551230000e-1
1.993332723620000e-1 1.774019940910000e-1 1.559721781910000e-1 1.351336430750000e-1
1.149754018570000e-1 9.558477287530000e-2 7.704645407870001e-2 5.944157532109999e-2
4.284676591789999e-2 2.733327526920000e-2 1.296619196140000e-2 -1.961963901260000e-4
-1.210287588590000e-2 -2.271040731690000e-2 -3.198311152220001e-2 -3.989324778379999e-2
-4.642139252840000e-2 -5.155725738459999e-2 -5.530122000660000e-2 -5.766670656910000e-2
-5.868340375290000e-2 -5.840095464000000e-2 -5.689260312240000e-2 -5.425809503190000e-2
-5.062531314950000e-2 -4.615032725550000e-2 -4.101587772850000e-2 -3.542837052399999e-2
-2.961339761810000e-2 -2.380942698140000e-2 -1.825896681670000e-2 -1.319619306810000e-2
-8.830046082310000e-3 -5.322260930840001e-3 -2.761077319230000e-3 -1.134003657390000e-3
-3.078392037640000e-4 -3.261303992880000e-5 -2.239391979220000e-7 0.000000000000000e0
0.000000000000000e0 0.000000000000000e0 0.000000000000000e0 0.000000000000000e0
0.000000000000000e0 0.000000000000000e0 0.000000000000000e0 0.000000000000000e0
0.000000000000000e0 0.000000000000000e0 0.000000000000000e0 0.000000000000000e0
0.000000000000000e0 0.000000000000000e0 0.000000000000000e0 0.000000000000000e0
0.000000000000000e0 0.000000000000000e0 0.000000000000000e0 0.000000000000000e0
0.000000000000000e0 0.000000000000000e0 0.000000000000000e0 0.000000000000000e0
0.000000000000000e0 0.000000000000000e0 0.000000000000000e0 0.000000000000000e0
0.000000000000000e0 0.000000000000000e0 0.000000000000000e0 0.000000000000000e0
0.000000000000000e0 0.000000000000000e0 0.000000000000000e0 0.000000000000000e0
0.000000000000000e0 0.000000000000000e0 0.000000000000000e0 0.000000000000000e0
0.000000000000000e0 0.000000000000000e0 0.000000000000000e0 0.000000000000000e0
0.000000000000000e0 0.000000000000000e0 0.000000000000000e0 0.000000000000000e0
0.000000000000000e0 0.000000000000000e0 0.000000000000000e0 0.000000000000000e0
0.000000000000000e0 0.000000000000000e0 0.000000000000000e0 0.000000000000000e0
0.000000000000000e0 0.000000000000000e0 0.000000000000000e0 0.000000000000000e0
0.000000000000000e0 0.000000000000000e0 0.000000000000000e0 0.000000000000000e0
0.000000000000000e0 0.000000000000000e0 0.000000000000000e0 0.000000000000000e0
0.000000000000000e0 0.000000000000000e0 0.000000000000000e0 0.000000000000000e0
0.000000000000000e0 0.000000000000000e0 0.000000000000000e0 0.000000000000000e0
0.000000000000000e0 0.000000000000000e0 0.000000000000000e0 0.000000000000000e0
0.000000000000000e0 0.000000000000000e0 0.000000000000000e0 0.000000000000000e0
0.000000000000000e0 0.000000000000000e0 0.000000000000000e0 0.000000000000000e0
0.000000000000000e0 0.000000000000000e0 0.000000000000000e0 0.000000000000000e0
0.000000000000000e0 0.000000000000000e0 0.000000000000000e0 0.000000000000000e0
0.000000000000000e0 0.000000000000000e0 0.000000000000000e0 0.000000000000000e0
0.000000000000000e0 0.000000000000000e0 0.000000000000000e0 0.000000000000000e0
0.000000000000000e0 0.000000000000000e0 0.000000000000000e0 0.000000000000000e0
0.000000000000000e0 0.000000000000000e0 0.000000000000000e0 0.000000000000000e0
0.000000000000000e0 0.000000000000000e0 0.000000000000000e0 0.000000000000000e0
0.000000000000000e0 0.000000000000000e0 0.000000000000000e0 0.000000000000000e0
0.000000000000000e0 0.000000000000000e0 0.000000000000000e0 0.000000000000000e0
0.000000000000000e0 0.000000000000000e0 0.000000000000000e0 0.000000000000000e0
0.000000000000000e0 0.000000000000000e0 0.000000000000000e0 0.000000000000000e0
0.000000000000000e0 0.000000000000000e0 0.000000000000000e0 0.000000000000000e0
0.000000000000000e0 0.000000000000000e0 0.000000000000000e0 0.000000000000000e0
0.000000000000000e0 0.000000000000000e0 0.000000000000000e0 0.000000000000000e0
0.000000000000000e0 0.000000000000000e0 0.000000000000000e0 0.000000000000000e0
0.000000000000000e0 0.000000000000000e0 0.000000000000000e0 0.000000000000000e0
0.000000000000000e0 0.000000000000000e0 0.000000000000000e0 0.000000000000000e0
0.000000000000000e0 0.000000000000000e0 0.000000000000000e0 0.000000000000000e0
0.000000000000000e0 0.000000000000000e0 0.000000000000000e0 0.000000000000000e0
0.000000000000000e0 0.000000000000000e0 0.000000000000000e0 0.000000000000000e0
0.000000000000000e0 0.000000000000000e0 0.000000000000000e0 0.000000000000000e0
0.000000000000000e0 0.000000000000000e0 0.000000000000000e0 0.000000000000000e0
0.000000000000000e0 0.000000000000000e0 0.000000000000000e0 0.000000000000000e0
0.000000000000000e0 0.000000000000000e0 0.000000000000000e0 0.000000000000000e0
0.000000000000000e0 0.000000000000000e0 0.000000000000000e0 0.000000000000000e0
0.000000000000000e0 0.000000000000000e0 0.000000000000000e0 0.000000000000000e0
0.000000000000000e0 0.000000000000000e0 0.000000000000000e0 0.000000000000000e0
0.000000000000000e0 0.000000000000000e0 0.000000000000000e0 0.000000000000000e0
0.000000000000000e0 0.000000000000000e0 0.000000000000000e0 0.000000000000000e0
0.000000000000000e0 0.000000000000000e0 0.000000000000000e0 0.000000000000000e0
0.000000000000000e0 0.000000000000000e0 0.000000000000000e0 0.000000000000000e0
0.000000000000000e0 0.000000000000000e0 0.000000000000000e0 0.000000000000000e0
0.000000000000000e0 0.000000000000000e0 0.000000000000000e0 0.000000000000000e0
0.000000000000000e0 0.000000000000000e0 0.000000000000000e0 0.000000000000000e0
0.000000000000000e0 0.000000000000000e0 0.000000000000000e0 0.000000000000000e0
0.000000000000000e0 0.000000000000000e0 0.000000000000000e0 0.000000000000000e0
0.000000000000000e0 0.000000000000000e0 0.000000000000000e0 0.000000000000000e0
0.000000000000000e0 0.000000000000000e0 0.000000000000000e0 0.000000000000000e0
0.000000000000000e0 0.000000000000000e0 0.000000000000000e0 0.000000000000000e0
0.000000000000000e0 0.000000000000000e0 0.000000000000000e0 0.000000000000000e0
0.000000000000000e0 0.000000000000000e0 0.000000000000000e0 0.000000000000000e0
0.000000000000000e0 0.000000000000000e0 0.000000000000000e0 0.000000000000000e0
0.000000000000000e0 0.000000000000000e0 0.000000000000000e0 0.000000000000000e0
0.000000000000000e0 0.000000000000000e0 0.000000000000000e0 0.000000000000000e0
0.000000000000000e0 0.000000000000000e0 0.000000000000000e0 0.000000000000000e0
0.000000000000000e0 0.000000000000000e0 0.000000000000000e0 0.000000000000000e0
0.000000000000000e0 0.000000000000000e0 0.000000000000000e0 0.000000000000000e0
0.000000000000000e0 0.000000000000000e0 0.000000000000000e0 0.000000000000000e0
0.000000000000000e0 0.000000000000000e0 0.000000000000000e0 0.000000000000000e0
0.000000000000000e0 0.000000000000000e0 0.000000000000000e0
</PP_QIJ.1.2>
<PP_QIJ.1.3 first_index="1" second_index="3" composite_index="4">
0.000000000000000e0 -9.680104337899998e-18 -7.940953006590000e-17 -2.748395072399999e-16
-6.681258647569999e-16 -1.338386014680000e-15 -2.372183839690000e-15 -3.864044070689999e-15
-5.916997828520001e-15 -8.643161094729997e-15 -1.216434797320000e-14 -1.661272070539999e-14
-2.213147850830000e-14 -2.887558741870000e-14 -3.701255344230000e-14 -4.672324143530000e-14
-5.820274227300000e-14 -7.166129100260000e-14 -8.732523881970000e-14 -1.054380818630000e-13
-1.262615499830000e-13 -1.500767588130000e-13 -1.771854286430000e-13 -2.079111737930000e-13
-2.426008663790001e-13 -2.816260785719999e-13 -3.253846076730000e-13 -3.743020885480000e-13
-4.288336982399999e-13 -4.894659577930001e-13 -5.567186366170002e-13 -6.311467650180002e-13
-7.133427607760002e-13 -8.039386760170000e-13 -9.036085709279998e-13 -1.013071021210000e-12
-1.133091766580000e-12 -1.264486507920000e-12 -1.408123861170000e-12 -1.564928476540000e-12
-1.735884331840000e-12 -1.922038209470001e-12 -2.124503366890000e-12 -2.344463411240000e-12
-2.583176388720000e-12 -2.841979100790000e-12 -3.122291658970000e-12 -3.425622291410000e-12
-3.753572414440000e-12 -4.107841983730001e-12 -4.490235139609999e-12 -4.902666162690000e-12
-5.347165756240001e-12 -5.825887672780000e-12 -6.341115703410000e-12 -6.895271049160002e-12
-7.490920094850000e-12 -8.130782606830000e-12 -8.817740377360000e-12 -9.554846339270002e-12
-1.034533417600000e-11 -1.119262845350000e-11 -1.210035530160000e-11 -1.307235367370000e-11
-1.411268721690000e-11 -1.522565678280000e-11 -1.641581361450000e-11 -1.768797324600000e-11
-1.904723014989999e-11 -2.049897317460000e-11 -2.204890181249999e-11 -2.370304334290000e-11
-2.546777089550001e-11 -2.734982248390000e-11 -2.935632106020000e-11 -3.149479564379999e-11
-3.377320358190000e-11 -3.619995400140000e-11 -3.878393251390000e-11 -4.153452724159999e-11
-4.446165623180002e-11 -4.757579633450000e-11 -5.088801361880000e-11 -5.440999541069999e-11
-5.815408403560001e-11 -6.213331235620000e-11 -6.636144120010000e-11 -7.085299877589999e-11
-7.562332218209998e-11 -8.068860111859998e-11 -8.606592391710000e-11 -9.177332601029999e-11
-9.782984096940000e-11 -1.042555542430000e-10 -1.110716597380000e-10 -1.183005193990000e-10
-1.259657259250000e-10 -1.340921688110000e-10 -1.427061038700000e-10 -1.518352264250000e-10
-1.615087483600000e-10 -1.717574792360000e-10 -1.826139116800000e-10 -1.941123112700000e-10
-2.062888111510000e-10 -2.191815116340000e-10 -2.328305850280000e-10 -2.472783859870001e-10
-2.625695676520001e-10 -2.787512039000000e-10 -2.958729180000000e-10 -3.139870180350001e-10
-3.331486394179999e-10 -3.534158948860000e-10 -3.748500323570001e-10 -3.975156010530000e-10
-4.214806263370000e-10 -4.468167936890000e-10 -4.735996423250000e-10 -5.019087689370001e-10
-5.318280420950002e-10 -5.634458278620000e-10 -5.968552271900000e-10 -6.321543257370000e-10
-6.694464567179999e-10 -7.088404774909998e-10 -7.504510605809999e-10 -7.943989998830002e-10
-8.408115328499999e-10 -8.898226794810004e-10 -9.415735989790001e-10 -9.962129650050001e-10
-1.053897360490000e-9 -1.114791692990000e-9 -1.179069631730000e-9 -1.246914067330000e-9
-1.318517595510000e-9 -1.394083025960000e-9 -1.473823917680000e-9 -1.557965142160000e-9
-1.646743475830000e-9 -1.740408223390000e-9 -1.839221873400000e-9 -1.943460788110000e-9
-2.053415928940000e-9 -2.169393619800000e-9 -2.291716349970000e-9 -2.420723618670000e-9
-2.556772823490001e-9 -2.700240194919999e-9 -2.851521779330000e-9 -3.011034473020000e-9
-3.179217109840000e-9 -3.356531605200000e-9 -3.543464159450000e-9 -3.740526523580000e-9
-3.948257330530000e-9 -4.167223495519999e-9 -4.398021688869999e-9 -4.641279885139999e-9
-4.897658992480002e-9 -5.167854566380001e-9 -5.452598612100001e-9 -5.752661480430000e-9
-6.068853861550001e-9 -6.402028882049999e-9 -6.753084310480001e-9 -7.122964876960001e-9
-7.512664712769999e-9 -7.923229916130001e-9 -8.355761250619999e-9 -8.811416983080001e-9
-9.291415868270001e-9 -9.797040287780000e-9 -1.032963955110000e-8 -1.089063336720000e-8
-1.148151549590000e-8 -1.210385758690000e-8 -1.275931321850000e-8 -1.344962214330000e-8
-1.417661475470000e-8 -1.494221678260000e-8 -1.574845423260000e-8 -1.659745857980000e-8
-1.749147223010000e-8 -1.843285426450000e-8 -1.942408647860000e-8 -2.046777973460000e-8
-2.156668064070000e-8 -2.272367857480000e-8 -2.394181307100000e-8 -2.522428158660000e-8
-2.657444766970000e-8 -2.799584954850000e-8 -2.949220916240000e-8 -3.106744165989999e-8
-3.272566538500000e-8 -3.447121237930000e-8 -3.630863942470000e-8 -3.824273965500000e-8
-4.027855476730000e-8 -4.242138786040001e-8 -4.467681693649999e-8 -4.705070909760001e-8
-4.954923547320000e-8 -5.217888691720001e-8 -5.494649051299999e-8 -5.785922692880002e-8
-6.092464866650000e-8 -6.415069925020001e-8 -6.754573340289999e-8 -7.111853826190000e-8
-7.487835568580000e-8 -7.883490571109999e-8 -8.299841121479998e-8 -8.737962384699999e-8
-9.198985129799999e-8 -9.684098596889999e-8 -1.019455351170000e-7 -1.073166525530000e-7
-1.129681719670000e-7 -1.189146419750000e-7 -1.251713629580000e-7 -1.317544258070000e-7
-1.386807526540000e-7 -1.459681397000000e-7 -1.536353022480000e-7 -1.617019220480000e-7
-1.701886970760000e-7 -1.791173938820000e-7 -1.885109026160000e-7 -1.983932948950000e-7
-2.087898846390000e-7 -2.197272920330000e-7 -2.312335107840000e-7 -2.433379788310000e-7
-2.560716526870000e-7 -2.694670856060000e-7 -2.835585097680000e-7 -2.983819226880000e-7
-3.139751780560001e-7 -3.303780812619999e-7 -3.476324898140000e-7 -3.657824189260000e-7
-3.848741525259999e-7 -4.049563599640001e-7 -4.260802187300000e-7 -4.482995434550000e-7
-4.716709215580001e-7 -4.962538558510001e-7 -5.221109144680002e-7 -5.493078884990000e-7
-5.779139577160000e-7 -6.080018648160000e-7 -6.396480986010000e-7 -6.729330865790000e-7
-7.079413974410000e-7 -7.447619539410000e-7 -7.834882567090001e-7 -8.242186195480000e-7
-8.670564168110001e-7 -9.121103434869999e-7 -9.594946886210000e-7 -1.009329622790000e-6
-1.061741500310000e-6 -1.116863176970000e-6 -1.174834344090000e-6 -1.235801879660000e-6
-1.299920217590000e-6 -1.367351735810000e-6 -1.438267164370000e-6 -1.512846014430000e-6
-1.591277029250000e-6 -1.673758658390000e-6 -1.760499556110000e-6 -1.851719105500000e-6
-1.947647969330000e-6 -2.048528669280000e-6 -2.154616194810000e-6 -2.266178643280000e-6
-2.383497892900000e-6 -2.506870310150000e-6 -2.636607493580000e-6 -2.773037055590000e-6
-2.916503444410000e-6 -3.067368808230000e-6 -3.226013903490000e-6 -3.392839049940000e-6
-3.568265134420000e-6 -3.752734666310000e-6 -3.946712886909999e-6 -4.150688935720001e-6
-4.365177076529999e-6 -4.590717986300000e-6 -4.827880110010000e-6 -5.077261085040002e-6
-5.339489238460001e-6 -5.615225160950001e-6 -5.905163361490001e-6 -6.210034006600001e-6
-6.530604748829999e-6 -6.867682648760000e-6 -7.222116195429999e-6 -7.594797430229999e-6
-7.986664179510000e-6 -8.398702401440000e-6 -8.831948653020003e-6 -9.287492683340002e-6
-9.766480159450003e-6 -1.027011553180000e-5 -1.079966504640000e-5 -1.135645991050000e-5
-1.194189962090000e-5 -1.255745546220000e-5 -1.320467418360000e-5 -1.388518186410000e-5
-1.460068797530000e-5 -1.535298965140000e-5 -1.614397617790000e-5 -1.697563370950000e-5
-1.785005022920000e-5 -1.876942076010000e-5 -1.973605284450000e-5 -2.075237230150000e-5
-2.182092927980000e-5 -2.294440461850000e-5 -2.412561653300000e-5 -2.536752764260000e-5
-2.667325235530000e-5 -2.804606463060000e-5 -2.948940613770000e-5 -3.100689482960000e-5
-3.260233395430000e-5 -3.427972152570000e-5 -3.604326027630000e-5 -3.789736811780000e-5
-3.984668913390000e-5 -4.189610513300001e-5 -4.405074778900000e-5 -4.631601139990000e-5
-4.869756629579999e-5 -5.120137292819999e-5 -5.383369667659999e-5 -5.660112340699999e-5
-5.951057582149999e-5 -6.256933063819998e-5 -6.578503664340001e-5 -6.916573366090000e-5
-7.271987248289999e-5 -7.645633581299998e-5 -8.038446027009998e-5 -8.451405950880000e-5
-8.885544851060001e-5 -9.341946910490002e-5 -9.821751678310001e-5 -1.032615688690000e-4
-1.085642141130000e-4 -1.141386837840000e-4 -1.199988843340000e-4 -1.261594317040000e-4
-1.326356873740000e-4 -1.394437962220000e-4 -1.466007262950000e-4 -1.541243105840000e-4
-1.620332909050000e-4 -1.703473639830000e-4 -1.790872298620000e-4 -1.882746427360000e-4
-1.979324643480000e-4 -2.080847200580000e-4 -2.187566577270000e-4 -2.299748095520000e-4
-2.417670569980000e-4 -2.541626989770000e-4 -2.671925234400000e-4 -2.808888825370000e-4
-2.952857715400000e-4 -3.104189116880001e-4 -3.263258371670000e-4 -3.430459864190000e-4
-3.606207979850000e-4 -3.790938111090000e-4 -3.985107713390001e-4 -4.189197413489999e-4
-4.403712172559999e-4 -4.629182506810000e-4 -4.866165768400000e-4 -5.115247489499999e-4
-5.377042792450000e-4 -5.652197869440000e-4 -5.941391534690000e-4 -6.245336852770000e-4
-6.564782846719998e-4 -6.900516289559999e-4 -7.253363583270001e-4 -7.624192729360001e-4
-8.013915395200000e-4 -8.423489080700000e-4 -8.853919390010001e-4 -9.306262413050000e-4
-9.781627222059999e-4 -1.028117848830000e-3 -1.080613922480000e-3 -1.135779366010000e-3
-1.193749025040000e-3 -1.254664483460000e-3 -1.318674394050000e-3 -1.385934824710000e-3
-1.456609621220000e-3 -1.530870787030000e-3 -1.608898881010000e-3 -1.690883433950000e-3
-1.777023384430000e-3 -1.867527535220000e-3 -1.962615030860000e-3 -2.062515857400000e-3
-2.167471365310000e-3 -2.277734816500000e-3 -2.393571956480000e-3 -2.515261612670000e-3
-2.643096320120000e-3 -2.777382975520000e-3 -2.918443520940000e-3 -3.066615658310000e-3
-3.222253596000000e-3 -3.385728828740000e-3 -3.557430952290000e-3 -3.737768514070000e-3
-3.927169901400001e-3 -4.126084268600000e-3 -4.334982504540000e-3 -4.554358242200001e-3
-4.784728911789999e-3 -5.026636839010000e-3 -5.280650390250000e-3 -5.547365166320000e-3
-5.827405246460000e-3 -6.121424484530000e-3 -6.430107859100000e-3 -6.754172879350000e-3
-7.094371048710000e-3 -7.451489388160000e-3 -7.826352021170000e-3 -8.219821822300000e-3
-8.632802131569999e-3 -9.066238536520000e-3 -9.521120724300001e-3 -9.998484405700001e-3
-1.049941331350000e-2 -1.102504127700000e-2 -1.157655437540000e-2 -1.215519317200000e-2
-1.276225503110000e-2 -1.339909652030000e-2 -1.406713590080000e-2 -1.476785570690000e-2
-1.550280541750000e-2 -1.627360422220000e-2 -1.708194388340000e-2 -1.792959169720000e-2
-1.881839355490000e-2 -1.975027710710000e-2 -2.072725503270000e-2 -2.175142841430000e-2
-2.282499022250000e-2 -2.395022890930000e-2 -2.512953211430000e-2 -2.636539048270000e-2
-2.766040159770000e-2 -2.901727402790000e-2 -3.043883148930000e-2 -3.192801712290000e-2
-3.348789788680000e-2 -3.512166906190000e-2 -3.683265887010001e-2 -3.862433320110000e-2
-4.050030044560000e-2 -4.246431642879999e-2 -4.452028943950000e-2 -4.667228534580000e-2
-4.892453278750001e-2 -5.128142843470000e-2 -5.374754229540000e-2 -5.632762305620000e-2
-5.902660343260000e-2 -6.184960550400000e-2 -6.480194600170000e-2 -6.788914151159999e-2
-7.111691354920000e-2 -7.449119345400001e-2 -7.801812704080000e-2 -8.170407893880000e-2
-8.555563653120000e-2 -8.957961339950000e-2 -9.378305215850000e-2 -9.817322655020000e-2
-1.027576426440000e-1 -1.075440389700000e-1 -1.125403853870000e-1 -1.177548804480000e-1
-1.231959470170000e-1 -1.288722258330000e-1 -1.347925666880000e-1 -1.409660168480000e-1
-1.474018063020000e-1 -1.541093293570000e-1 -1.610981220860000e-1 -1.683778350310000e-1
-1.759582005550000e-1 -1.838489941600000e-1 -1.920599890300000e-1 -2.006009030130000e-1
-2.094813372190000e-1 -2.187107053430000e-1 -2.282981528280000e-1 -2.382524649310000e-1
-2.485819627880000e-1 -2.592943865950000e-1 -2.703967650710000e-1 -2.818952704710000e-1
-2.937950585870000e-1 -3.061000933230000e-1 -3.188129557540000e-1 -3.319346378650000e-1
-3.454643216390000e-1 -3.593991446410000e-1 -3.737339539020000e-1 -3.884610506380000e-1
-4.035699291609999e-1 -4.190470143660000e-1 -4.348754031920000e-1 -4.510346166820000e-1
-4.675003704580000e-1 -4.842443727350000e-1 -5.012341602130000e-1 -5.184329833120001e-1
-5.357997531280000e-1 -5.532890630520000e-1 -5.708512979969999e-1 -5.884328435070000e-1
-6.059764053320000e-1 -6.234214470920000e-1 -6.407047491949999e-1 -6.577610856830000e-1
-6.745240071090000e-1 -6.909267063170001e-1 -7.069029301350001e-1 -7.223878833030000e-1
-7.373190517180000e-1 -7.516368508740000e-1 -7.652849833149999e-1 -7.782103678920000e-1
-7.903624865770000e-1 -8.016919855839999e-1 -8.121483723479999e-1 -8.216766761160001e-1
-8.302129967750000e-1 -8.376789659509999e-1 -8.439752983749999e-1 -8.489748341089999e-1
-8.525157731169999e-1 -8.543961873930000e-1 -8.543713523130000e-1 -8.521559307130000e-1
-8.474334888270000e-1 -8.398760632520000e-1 -8.291762536490001e-1 -8.150931164639999e-1
-7.975102175540000e-1 -7.764983636160000e-1 -7.523649042720000e-1 -7.256532362590001e-1
-6.970259635570000e-1 -6.669601606050000e-1 -6.356660445080000e-1 -6.033334590540001e-1
-5.701621170550000e-1 -5.363600938560000e-1 -5.021417142170001e-1 -4.677251981920000e-1
-4.333301214500000e-1 -3.991747014620000e-1 -3.654730057630000e-1 -3.324321348010000e-1
-3.002495328420000e-1 -2.691105313900000e-1 -2.391863239620000e-1 -2.106324816380000e-1
-1.835881475400000e-1 -1.581758601930000e-1 -1.345018770800000e-1 -1.126566176930000e-1
-9.271479377830000e-2 -7.473472078610000e-2 -5.875652836600000e-2 -4.479921588570001e-2
-3.285686264120000e-2 -2.289446653710000e-2 -1.484397100850000e-2 -8.600935737410000e-3
-4.022263012020001e-3 -9.254358183899999e-4 9.100124073440000e-4 1.737683397180000e-3
1.834619214970000e-3 1.484985237340000e-3 9.557694921929999e-4 4.647454777580000e-4
1.448623554690000e-4 1.725341892130000e-5 1.064898657510000e-7 0.000000000000000e0
0.000000000000000e0 0.000000000000000e0 0.000000000000000e0 0.000000000000000e0
0.000000000000000e0 0.000000000000000e0 0.000000000000000e0 0.000000000000000e0
0.000000000000000e0 0.000000000000000e0 0.000000000000000e0 0.000000000000000e0
0.000000000000000e0 0.000000000000000e0 0.000000000000000e0 0.000000000000000e0
0.000000000000000e0 0.000000000000000e0 0.000000000000000e0 0.000000000000000e0
0.000000000000000e0 0.000000000000000e0 0.000000000000000e0 0.000000000000000e0
0.000000000000000e0 0.000000000000000e0 0.000000000000000e0 0.000000000000000e0
0.000000000000000e0 0.000000000000000e0 0.000000000000000e0 0.000000000000000e0
0.000000000000000e0 0.000000000000000e0 0.000000000000000e0 0.000000000000000e0
0.000000000000000e0 0.000000000000000e0 0.000000000000000e0 0.000000000000000e0
0.000000000000000e0 0.000000000000000e0 0.000000000000000e0 0.000000000000000e0
0.000000000000000e0 0.000000000000000e0 0.000000000000000e0 0.000000000000000e0
0.000000000000000e0 0.000000000000000e0 0.000000000000000e0 0.000000000000000e0
0.000000000000000e0 0.000000000000000e0 0.000000000000000e0 0.000000000000000e0
0.000000000000000e0 0.000000000000000e0 0.000000000000000e0 0.000000000000000e0
0.000000000000000e0 0.000000000000000e0 0.000000000000000e0 0.000000000000000e0
0.000000000000000e0 0.000000000000000e0 0.000000000000000e0 0.000000000000000e0
0.000000000000000e0 0.000000000000000e0 0.000000000000000e0 0.000000000000000e0
0.000000000000000e0 0.000000000000000e0 0.000000000000000e0 0.000000000000000e0
0.000000000000000e0 0.000000000000000e0 0.000000000000000e0 0.000000000000000e0
0.000000000000000e0 0.000000000000000e0 0.000000000000000e0 0.000000000000000e0
0.000000000000000e0 0.000000000000000e0 0.000000000000000e0 0.000000000000000e0
0.000000000000000e0 0.000000000000000e0 0.000000000000000e0 0.000000000000000e0
0.000000000000000e0 0.000000000000000e0 0.000000000000000e0 0.000000000000000e0
0.000000000000000e0 0.000000000000000e0 0.000000000000000e0 0.000000000000000e0
0.000000000000000e0 0.000000000000000e0 0.000000000000000e0 0.000000000000000e0
0.000000000000000e0 0.000000000000000e0 0.000000000000000e0 0.000000000000000e0
0.000000000000000e0 0.000000000000000e0 0.000000000000000e0 0.000000000000000e0
0.000000000000000e0 0.000000000000000e0 0.000000000000000e0 0.000000000000000e0
0.000000000000000e0 0.000000000000000e0 0.000000000000000e0 0.000000000000000e0
0.000000000000000e0 0.000000000000000e0 0.000000000000000e0 0.000000000000000e0
0.000000000000000e0 0.000000000000000e0 0.000000000000000e0 0.000000000000000e0
0.000000000000000e0 0.000000000000000e0 0.000000000000000e0 0.000000000000000e0
0.000000000000000e0 0.000000000000000e0 0.000000000000000e0 0.000000000000000e0
0.000000000000000e0 0.000000000000000e0 0.000000000000000e0 0.000000000000000e0
0.000000000000000e0 0.000000000000000e0 0.000000000000000e0 0.000000000000000e0
0.000000000000000e0 0.000000000000000e0 0.000000000000000e0 0.000000000000000e0
0.000000000000000e0 0.000000000000000e0 0.000000000000000e0 0.000000000000000e0
0.000000000000000e0 0.000000000000000e0 0.000000000000000e0 0.000000000000000e0
0.000000000000000e0 0.000000000000000e0 0.000000000000000e0 0.000000000000000e0
0.000000000000000e0 0.000000000000000e0 0.000000000000000e0 0.000000000000000e0
0.000000000000000e0 0.000000000000000e0 0.000000000000000e0 0.000000000000000e0
0.000000000000000e0 0.000000000000000e0 0.000000000000000e0 0.000000000000000e0
0.000000000000000e0 0.000000000000000e0 0.000000000000000e0 0.000000000000000e0
0.000000000000000e0 0.000000000000000e0 0.000000000000000e0 0.000000000000000e0
0.000000000000000e0 0.000000000000000e0 0.000000000000000e0 0.000000000000000e0
0.000000000000000e0 0.000000000000000e0 0.000000000000000e0 0.000000000000000e0
0.000000000000000e0 0.000000000000000e0 0.000000000000000e0 0.000000000000000e0
0.000000000000000e0 0.000000000000000e0 0.000000000000000e0 0.000000000000000e0
0.000000000000000e0 0.000000000000000e0 0.000000000000000e0 0.000000000000000e0
0.000000000000000e0 0.000000000000000e0 0.000000000000000e0 0.000000000000000e0
0.000000000000000e0 0.000000000000000e0 0.000000000000000e0 0.000000000000000e0
0.000000000000000e0 0.000000000000000e0 0.000000000000000e0 0.000000000000000e0
0.000000000000000e0 0.000000000000000e0 0.000000000000000e0 0.000000000000000e0
0.000000000000000e0 0.000000000000000e0 0.000000000000000e0 0.000000000000000e0
0.000000000000000e0 0.000000000000000e0 0.000000000000000e0 0.000000000000000e0
0.000000000000000e0 0.000000000000000e0 0.000000000000000e0 0.000000000000000e0
0.000000000000000e0 0.000000000000000e0 0.000000000000000e0 0.000000000000000e0
0.000000000000000e0 0.000000000000000e0 0.000000000000000e0 0.000000000000000e0
0.000000000000000e0 0.000000000000000e0 0.000000000000000e0 0.000000000000000e0
0.000000000000000e0 0.000000000000000e0 0.000000000000000e0 0.000000000000000e0
0.000000000000000e0 0.000000000000000e0 0.000000000000000e0 0.000000000000000e0
0.000000000000000e0 0.000000000000000e0 0.000000000000000e0 0.000000000000000e0
0.000000000000000e0 0.000000000000000e0 0.000000000000000e0 0.000000000000000e0
0.000000000000000e0 0.000000000000000e0 0.000000000000000e0 0.000000000000000e0
0.000000000000000e0 0.000000000000000e0 0.000000000000000e0 0.000000000000000e0
0.000000000000000e0 0.000000000000000e0 0.000000000000000e0 0.000000000000000e0
0.000000000000000e0 0.000000000000000e0 0.000000000000000e0 0.000000000000000e0
0.000000000000000e0 0.000000000000000e0 0.000000000000000e0 0.000000000000000e0
0.000000000000000e0 0.000000000000000e0 0.000000000000000e0 0.000000000000000e0
0.000000000000000e0 0.000000000000000e0 0.000000000000000e0 0.000000000000000e0
0.000000000000000e0 0.000000000000000e0 0.000000000000000e0
</PP_QIJ.1.3>
<PP_QIJ.1.4 first_index="1" second_index="4" composite_index="7">
0.000000000000000e0 1.900302057500000e-17 1.558889120420001e-16 5.395376566790000e-16
1.311598419950000e-15 2.627386656810001e-15 4.656835994619999e-15 7.585508008280001e-15
1.161566317350000e-14 1.696739646340000e-14 2.387984124279999e-14 3.261244531340000e-14
4.344632317290000e-14 5.668568877159999e-14 7.265937328340001e-14 9.172243265190000e-14
1.142578499300000e-13 1.406783377070000e-13 1.714282461960000e-13 2.069855828600000e-13
2.478641497780001e-13 2.946158052740000e-13 3.478328566890000e-13 4.081505915510000e-13
4.762499547900000e-13 5.528603800290000e-13 6.387627834640000e-13 7.347927292400001e-13
8.418437757720000e-13 9.608710129049999e-13 1.092894800380000e-12 1.239004718640000e-12
1.400363743480000e-12 1.578212656930000e-12 1.773874707090000e-12 1.988760530480000e-12
2.224373351340000e-12 2.482314472680000e-12 2.764289075190000e-12 3.072112340410000e-12
3.407715915930001e-12 3.773154741079998e-12 4.170614252520000e-12 4.602417990260000e-12
5.071035625850000e-12 5.579091435230001e-12 6.129373240470000e-12 6.724841845349999e-12
7.368640991589999e-12 8.064107863400004e-12 8.814784170090002e-12 9.624427837400001e-12
1.049702534050000e-11 1.143680471250000e-11 1.244824926550000e-11 1.353611206120000e-11
1.470543117140000e-11 1.596154577160000e-11 1.731011311040000e-11 1.875712640230000e-11
2.030893369400000e-11 2.197225775320000e-11 2.375421703800000e-11 2.566234780110000e-11
2.770462739070000e-11 2.988949881169999e-11 3.222589661320001e-11 3.472327417319999e-11
3.739163245440000e-11 4.024155030909999e-11 4.328421641510000e-11 4.653146292839999e-11
4.999580094440001e-11 5.369045786270000e-11 5.762941675520000e-11 6.182745784529999e-11
6.630020220669998e-11 7.106415780200002e-11 7.613676798160000e-11 8.153646257440000e-11
8.728271170579999e-11 9.339608248660001e-11 9.989829872479996e-11 1.068123038170000e-10
1.141623269910000e-10 1.219739530670000e-10 1.302741959350000e-10 1.390915759300000e-10
1.484562013190000e-10 1.583998541130000e-10 1.689560804240000e-10 1.801602856230000e-10
1.920498345220000e-10 2.046641568780000e-10 2.180448584640001e-10 2.322358380200000e-10
2.472834103909999e-10 2.632364361569999e-10 2.801464581170000e-10 2.980678449720000e-10
3.170579425890001e-10 3.371772332299999e-10 3.584895031880000e-10 3.810620192320000e-10
4.049657143579999e-10 4.302753833009999e-10 4.570698883380000e-10 4.854323759060000e-10
5.154505046050000e-10 5.472166851770001e-10 5.808283330810001e-10 6.163881343319998e-10
6.540043252740002e-10 6.937909870400000e-10 7.358683554309998e-10 7.803631470460002e-10
8.274089024869999e-10 8.771463475360001e-10 9.297237732399999e-10 9.852974358779999e-10
1.044031977850000e-9 1.106100870590000e-9 1.171686880580000e-9 1.240982559770000e-9
1.314190761610000e-9 1.391525183980000e-9 1.473210940510000e-9 1.559485161670000e-9
1.650597627320000e-9 1.746811432070000e-9 1.848403685550000e-9 1.955666248980000e-9
2.068906510280000e-9 2.188448199440000e-9 2.314632246440000e-9 2.447817683790000e-9
2.588382596070000e-9 2.736725118900000e-9 2.893264489840000e-9 3.058442153960001e-9
3.232722926990000e-9 3.416596218760000e-9 3.610577320440000e-9 3.815208758490001e-9
4.031061719070001e-9 4.258737546370000e-9 4.498869318790000e-9 4.752123506919999e-9
5.019201717570000e-9 5.300842528390000e-9 5.597823417530000e-9 5.910962793599999e-9
6.241122130699997e-9 6.589208214330000e-9 6.956175503650000e-9 7.343028616200000e-9
7.750824941409996e-9 8.180677389529997e-9 8.633757282950000e-9 9.111297397270000e-9
9.614595159930001e-9 1.014501601440000e-8 1.070399695850000e-8 1.129305026610000e-8
1.191376740090000e-8 1.256782313370000e-8 1.325697987120000e-8 1.398309221059999e-8
1.474811172800000e-8 1.555409201540000e-8 1.640319397820000e-8 1.729769140610000e-8
1.823997683210000e-8 1.923256769490000e-8 2.027811281850000e-8 2.137939922790000e-8
2.253935931650000e-8 2.376107838319999e-8 2.504780255950000e-8 2.640294714580000e-8
2.783010537789999e-8 2.933305764630000e-8 3.091578119170000e-8 3.258246030050000e-8
3.433749702700000e-8 3.618552246840000e-8 3.813140862190000e-8 4.018028085410000e-8
4.233753101250000e-8 4.460883121429999e-8 4.700014834639999e-8 4.951775931249999e-8
5.216826706720000e-8 5.495861747660000e-8 5.789611704810000e-8 6.098845157440000e-8
6.424370573850000e-8 6.767038372940000e-8 7.127743091970000e-8 7.507425666109999e-8
7.907075825420002e-8 8.327734615310000e-8 8.770497046919999e-8 9.236514883960002e-8
9.726999573139999e-8 1.024322532560000e-7 1.078653235690000e-7 1.135833029390000e-7
1.196010175750000e-7 1.259340612890000e-7 1.325988351090000e-7 1.396125889210000e-7
1.469934652650000e-7 1.547605453750000e-7 1.629338975980000e-7 1.715346282980000e-7
1.805849353860000e-7 1.901081645950000e-7 2.001288686650001e-7 2.106728695580000e-7
2.217673238860000e-7 2.334407917010000e-7 2.457233088170000e-7 2.586464628660001e-7
2.722434732520000e-7 2.865492752270000e-7 3.016006082880000e-7 3.174361091190000e-7
3.340964093120000e-7 3.516242381150000e-7 3.700645304619999e-7 3.894645405590000e-7
4.098739613039999e-7 4.313450498530000e-7 4.539327596390000e-7 4.776948791730000e-7
5.026921779849999e-7 5.289885600600002e-7 5.566512251670000e-7 5.857508384729999e-7
6.163617088740001e-7 6.485619764900001e-7 6.824338097979999e-7 7.180636128869999e-7
7.555422433649999e-7 7.949652414610000e-7 8.364330708919997e-7 8.800513721129999e-7
9.259312285609999e-7 9.741894465900000e-7 1.024948849770000e-6 1.078338588300000e-6
1.134494464350000e-6 1.193559274020000e-6 1.255683166970000e-6 1.321024024430000e-6
1.389747856680000e-6 1.462029220860000e-6 1.538051660330000e-6 1.618008166510000e-6
1.702101664440000e-6 1.790545523300000e-6 1.883564093070000e-6 1.981393268840000e-6
2.084281083940001e-6 2.192488333640000e-6 2.306289230770000e-6 2.425972095050000e-6
2.551840077700001e-6 2.684211923330000e-6 2.823422770850001e-6 2.969824995490001e-6
3.123789094060001e-6 3.285704615480000e-6 3.455981139250000e-6 3.635049303930000e-6
3.823361888420001e-6 4.021394948759999e-6 4.229649013120000e-6 4.448650338149999e-6
4.678952229700000e-6 4.921136431270000e-6 5.175814583660000e-6 5.443629759399999e-6
5.725258075920001e-6 6.021410391300000e-6 6.332834087019999e-6 6.660314942019998e-6
7.004679102850000e-6 7.366795154719998e-6 7.747576298690001e-6 8.147982640450000e-6
8.569023596229998e-6 9.011760422130003e-6 9.477308872829999e-6 9.966841996599999e-6
1.048159307340000e-5 1.102285870330000e-5 1.159200205360000e-5 1.219045627090000e-5
1.281972806990000e-5 1.348140150350000e-5 1.417714192800000e-5 1.490870016970000e-5
1.567791690560000e-5 1.648672726800000e-5 1.733716568440000e-5 1.823137096520000e-5
1.917159165180000e-5 2.016019163800001e-5 2.119965607870000e-5 2.229259760110000e-5
2.344176283280000e-5 2.465003926470000e-5 2.592046246280000e-5 2.725622365090000e-5
2.866067767820000e-5 3.013735139600000e-5 3.168995246090000e-5 3.332237858810001e-5
3.503872727720001e-5 3.684330603390000e-5 3.874064311420000e-5 4.073549881650001e-5
4.283287734950000e-5 4.503803930570000e-5 4.735651477140000e-5 4.979411710470000e-5
5.235695741550001e-5 5.505145978450001e-5 5.788437725660000e-5 6.086280864939999e-5
6.399421621779999e-5 6.728644421800000e-5 7.074773841550000e-5 7.438676658749999e-5
7.821264006630000e-5 8.223493637990000e-5 8.646372304250001e-5 9.090958255460000e-5
9.558363867350000e-5 1.004975840170000e-4 1.056637090710000e-4 1.110949326650000e-4
1.168048339990000e-4 1.228076862890000e-4 1.291184921260000e-4 1.357530206150000e-4
1.427278464070000e-4 1.500603907000000e-4 1.577689643170000e-4 1.658728129640000e-4
1.743921647690000e-4 1.833482802380000e-4 1.927635047150000e-4 2.026613235080000e-4
2.130664197790000e-4 2.240047353670000e-4 2.355035346670000e-4 2.475914717290000e-4
2.602986607300000e-4 2.736567499940000e-4 2.876989997290000e-4 3.024603636670000e-4
3.179775748030000e-4 3.342892354310000e-4 3.514359116860000e-4 3.694602328290000e-4
3.884069954860000e-4 4.083232730990000e-4 4.292585308470001e-4 4.512647462850000e-4
4.743965360050001e-4 4.987112885910000e-4 5.242693041940000e-4 5.511339410249999e-4
5.793717691220000e-4 6.090527317339999e-4 6.402503146820003e-4 6.730417240969999e-4
7.075080729200001e-4 7.437345765949999e-4 7.818107583900000e-4 8.218306648000000e-4
8.638930915140000e-4 9.081018204539999e-4 9.545658683860001e-4 1.003399747670000e-3
1.054723739720000e-3 1.108664181700000e-3 1.165353767220000e-3 1.224931861470000e-3
1.287544831720000e-3 1.353346393560000e-3 1.422497973950000e-3 1.495169091600000e-3
1.571537755530000e-3 1.651790882680000e-3 1.736124735350000e-3 1.824745379390000e-3
1.917869164070000e-3 2.015723224510000e-3 2.118546007760000e-3 2.226587823470000e-3
2.340111420210000e-3 2.459392588600000e-3 2.584720792300000e-3 2.716399828060000e-3
2.854748516060001e-3 3.000101421700000e-3 3.152809610250000e-3 3.313241435470000e-3
3.481783363800000e-3 3.658840835240000e-3 3.844839162570000e-3 4.040224470140000e-3
4.245464673910000e-3 4.461050504050000e-3 4.687496571800000e-3 4.925342481950000e-3
5.175153992719999e-3 5.437524224440001e-3 5.713074918609999e-3 6.002457749160000e-3
6.306355687120001e-3 6.625484420600001e-3 6.960593831430000e-3 7.312469530050000e-3
7.681934450060001e-3 8.069850503949999e-3 8.477120301210000e-3 8.904688930199999e-3
9.353545804940000e-3 9.824726577709999e-3 1.031931511860000e-2 1.083844556240000e-2
1.138330442410000e-2 1.195513278160000e-2 1.255522852880000e-2 1.318494869490000e-2
1.384571183290000e-2 1.453900047380000e-2 1.526636364770000e-2 1.602941946680000e-2
1.682985777100000e-2 1.766944283170000e-2 1.855001611060000e-2 1.947349906840000e-2
2.044189602070000e-2 2.145729703190000e-2 2.252188084320000e-2 2.363791782470000e-2
2.480777294340000e-2 2.603390873670000e-2 2.731888827890000e-2 2.866537812770000e-2
3.007615123580000e-2 3.155408981030000e-2 3.310218810090000e-2 3.472355509610000e-2
3.642141710330000e-2 3.819912018720000e-2 4.006013243760000e-2 4.200804603420000e-2
4.404657907370000e-2 4.617957712040000e-2 4.841101443830000e-2 5.074499485800001e-2
5.318575222760000e-2 5.573765039370000e-2 5.840518265090000e-2 6.119297059640000e-2
6.410576231829999e-2 6.714842984180001e-2 7.032596575249999e-2 7.364347890680000e-2
7.710618913770000e-2 8.071942085229999e-2 8.448859541600001e-2 8.841922220750000e-2
9.251688822409999e-2 9.678724610860000e-2 1.012360004650000e-1 1.058688923200000e-1
1.106916815840000e-1 1.157101273580000e-1 1.209299659330000e-1 1.263568863140000e-1
1.319965031080000e-1 1.378543266110000e-1 1.439357299240000e-1 1.502459129410000e-1
1.567898630390000e-1 1.635723123300000e-1 1.705976913270000e-1 1.778700788920000e-1
1.853931483640000e-1 1.931701097770000e-1 2.012036481080000e-1 2.094958575310000e-1
2.180481716890000e-1 2.268612900590000e-1 2.359351005030000e-1 2.452685982230000e-1
2.548598013270000e-1 2.647056633870000e-1 2.748019833710000e-1 2.851433134990000e-1
2.957228656390000e-1 3.065324169930000e-1 3.175622159380000e-1 3.288008890360000e-1
3.402353503150000e-1 3.518507141170000e-1 3.636302128850000e-1 3.755551214250000e-1
3.876046892670000e-1 3.997560828490000e-1 4.119843393150000e-1 4.242623337390000e-1
4.365607615850000e-1 4.488481381080000e-1 4.610908162860000e-1 4.732530246000000e-1
4.852969256900000e-1 4.971826964090000e-1 5.088686292820000e-1 5.203112546030000e-1
5.314654815740000e-1 5.422847558690000e-1 5.527212298350000e-1 5.627259402620000e-1
5.722489872880000e-1 5.812397065280001e-1 5.896468251740000e-1 5.974185914670000e-1
6.045028660000000e-1 6.108471626849999e-1 6.163986273730000e-1 6.211039431220000e-1
6.249091534700000e-1 6.277593990230001e-1 6.295985687260000e-1 6.303688757660000e-1
6.300103796020000e-1 6.284604905530000e-1 6.256535119270001e-1 6.215202970530001e-1
6.159881243239999e-1 6.089809218799999e-1 6.004200032300000e-1 5.902255033659999e-1
5.783187279649999e-1 5.646256402920001e-1 5.490817037620000e-1 5.316382624219999e-1
5.122705636960000e-1 4.909873922860000e-1 4.678420724770000e-1 4.429442912020000e-1
4.164717796540000e-1 3.886803607000000e-1 3.599102356700000e-1 3.305856938330000e-1
3.012047915940000e-1 2.723151761880000e-1 2.444724973510000e-1 2.181793925030000e-1
1.938068746990000e-1 1.715077301380000e-1 1.511457670760000e-1 1.322893141380000e-1
1.143580531020000e-1 9.702114196960000e-2 8.030651553390001e-2 6.428322827790001e-2
4.901744974600001e-2 3.457146805750000e-2 2.100286752180000e-2 8.363716817419999e-3
-3.300182255270000e-3 -1.394995713340000e-2 -2.355417301760000e-2 -3.208914767930000e-2
-3.953901162280000e-2 -4.589549649759999e-2 -5.115745626740001e-2 -5.533020956490001e-2
-5.842486949640000e-2 -6.045792407630000e-2 -6.145138471500000e-2 -6.143378384169999e-2
-6.044216548800000e-2 -5.852493689560000e-2 -5.574518612760000e-2 -5.218384030770000e-2
-4.794205906840000e-2 -4.314239098410000e-2 -3.792851554710000e-2 -3.246352406240000e-2
-2.692671541600000e-2 -2.150862667500000e-2 -1.640374145440000e-2 -1.180003579270000e-2
-7.864514478169999e-3 -4.724276298220000e-3 -2.443764747019999e-3 -1.001169626770000e-3
-2.711794112930000e-4 -2.867129596610001e-5 -2.104581293560000e-7 0.000000000000000e0
0.000000000000000e0 0.000000000000000e0 0.000000000000000e0 0.000000000000000e0
0.000000000000000e0 0.000000000000000e0 0.000000000000000e0 0.000000000000000e0
0.000000000000000e0 0.000000000000000e0 0.000000000000000e0 0.000000000000000e0
0.000000000000000e0 0.000000000000000e0 0.000000000000000e0 0.000000000000000e0
0.000000000000000e0 0.000000000000000e0 0.000000000000000e0 0.000000000000000e0
0.000000000000000e0 0.000000000000000e0 0.000000000000000e0 0.000000000000000e0
0.000000000000000e0 0.000000000000000e0 0.000000000000000e0 0.000000000000000e0
0.000000000000000e0 0.000000000000000e0 0.000000000000000e0 0.000000000000000e0
0.000000000000000e0 0.000000000000000e0 0.000000000000000e0 0.000000000000000e0
0.000000000000000e0 0.000000000000000e0 0.000000000000000e0 0.000000000000000e0
0.000000000000000e0 0.000000000000000e0 0.000000000000000e0 0.000000000000000e0
0.000000000000000e0 0.000000000000000e0 0.000000000000000e0 0.000000000000000e0
0.000000000000000e0 0.000000000000000e0 0.000000000000000e0 0.000000000000000e0
0.000000000000000e0 0.000000000000000e0 0.000000000000000e0 0.000000000000000e0
0.000000000000000e0 0.000000000000000e0 0.000000000000000e0 0.000000000000000e0
0.000000000000000e0 0.000000000000000e0 0.000000000000000e0 0.000000000000000e0
0.000000000000000e0 0.000000000000000e0 0.000000000000000e0 0.000000000000000e0
0.000000000000000e0 0.000000000000000e0 0.000000000000000e0 0.000000000000000e0
0.000000000000000e0 0.000000000000000e0 0.000000000000000e0 0.000000000000000e0
0.000000000000000e0 0.000000000000000e0 0.000000000000000e0 0.000000000000000e0
0.000000000000000e0 0.000000000000000e0 0.000000000000000e0 0.000000000000000e0
0.000000000000000e0 0.000000000000000e0 0.000000000000000e0 0.000000000000000e0
0.000000000000000e0 0.000000000000000e0 0.000000000000000e0 0.000000000000000e0
0.000000000000000e0 0.000000000000000e0 0.000000000000000e0 0.000000000000000e0
0.000000000000000e0 0.000000000000000e0 0.000000000000000e0 0.000000000000000e0
0.000000000000000e0 0.000000000000000e0 0.000000000000000e0 0.000000000000000e0
0.000000000000000e0 0.000000000000000e0 0.000000000000000e0 0.000000000000000e0
0.000000000000000e0 0.000000000000000e0 0.000000000000000e0 0.000000000000000e0
0.000000000000000e0 0.000000000000000e0 0.000000000000000e0 0.000000000000000e0
0.000000000000000e0 0.000000000000000e0 0.000000000000000e0 0.000000000000000e0
0.000000000000000e0 0.000000000000000e0 0.000000000000000e0 0.000000000000000e0
0.000000000000000e0 0.000000000000000e0 0.000000000000000e0 0.000000000000000e0
0.000000000000000e0 0.000000000000000e0 0.000000000000000e0 0.000000000000000e0
0.000000000000000e0 0.000000000000000e0 0.000000000000000e0 0.000000000000000e0
0.000000000000000e0 0.000000000000000e0 0.000000000000000e0 0.000000000000000e0
0.000000000000000e0 0.000000000000000e0 0.000000000000000e0 0.000000000000000e0
0.000000000000000e0 0.000000000000000e0 0.000000000000000e0 0.000000000000000e0
0.000000000000000e0 0.000000000000000e0 0.000000000000000e0 0.000000000000000e0
0.000000000000000e0 0.000000000000000e0 0.000000000000000e0 0.000000000000000e0
0.000000000000000e0 0.000000000000000e0 0.000000000000000e0 0.000000000000000e0
0.000000000000000e0 0.000000000000000e0 0.000000000000000e0 0.000000000000000e0
0.000000000000000e0 0.000000000000000e0 0.000000000000000e0 0.000000000000000e0
0.000000000000000e0 0.000000000000000e0 0.000000000000000e0 0.000000000000000e0
0.000000000000000e0 0.000000000000000e0 0.000000000000000e0 0.000000000000000e0
0.000000000000000e0 0.000000000000000e0 0.000000000000000e0 0.000000000000000e0
0.000000000000000e0 0.000000000000000e0 0.000000000000000e0 0.000000000000000e0
0.000000000000000e0 0.000000000000000e0 0.000000000000000e0 0.000000000000000e0
0.000000000000000e0 0.000000000000000e0 0.000000000000000e0 0.000000000000000e0
0.000000000000000e0 0.000000000000000e0 0.000000000000000e0 0.000000000000000e0
0.000000000000000e0 0.000000000000000e0 0.000000000000000e0 0.000000000000000e0
0.000000000000000e0 0.000000000000000e0 0.000000000000000e0 0.000000000000000e0
0.000000000000000e0 0.000000000000000e0 0.000000000000000e0 0.000000000000000e0
0.000000000000000e0 0.000000000000000e0 0.000000000000000e0 0.000000000000000e0
0.000000000000000e0 0.000000000000000e0 0.000000000000000e0 0.000000000000000e0
0.000000000000000e0 0.000000000000000e0 0.000000000000000e0 0.000000000000000e0
0.000000000000000e0 0.000000000000000e0 0.000000000000000e0 0.000000000000000e0
0.000000000000000e0 0.000000000000000e0 0.000000000000000e0 0.000000000000000e0
0.000000000000000e0 0.000000000000000e0 0.000000000000000e0 0.000000000000000e0
0.000000000000000e0 0.000000000000000e0 0.000000000000000e0 0.000000000000000e0
0.000000000000000e0 0.000000000000000e0 0.000000000000000e0 0.000000000000000e0
0.000000000000000e0 0.000000000000000e0 0.000000000000000e0 0.000000000000000e0
0.000000000000000e0 0.000000000000000e0 0.000000000000000e0 0.000000000000000e0
0.000000000000000e0 0.000000000000000e0 0.000000000000000e0 0.000000000000000e0
0.000000000000000e0 0.000000000000000e0 0.000000000000000e0 0.000000000000000e0
0.000000000000000e0 0.000000000000000e0 0.000000000000000e0 0.000000000000000e0
0.000000000000000e0 0.000000000000000e0 0.000000000000000e0 0.000000000000000e0
0.000000000000000e0 0.000000000000000e0 0.000000000000000e0 0.000000000000000e0
0.000000000000000e0 0.000000000000000e0 0.000000000000000e0 0.000000000000000e0
0.000000000000000e0 0.000000000000000e0 0.000000000000000e0 0.000000000000000e0
0.000000000000000e0 0.000000000000000e0 0.000000000000000e0 0.000000000000000e0
0.000000000000000e0 0.000000000000000e0 0.000000000000000e0 0.000000000000000e0
0.000000000000000e0 0.000000000000000e0 0.000000000000000e0
</PP_QIJ.1.4>
<PP_QIJ.1.5 first_index="1" second_index="5" composite_index="11">
0.000000000000000e0 -8.960134151740002e-24 -1.482420101550000e-22 -7.760922424870000e-22
-2.536795782670000e-21 -6.405941682040000e-21 -1.374059644680000e-20 -2.633483220819999e-20
-4.648109394880001e-20 -7.703792993480002e-20 -1.215046525189999e-19 -1.841035428400000e-19
-2.698702628760000e-19 -3.847531921490001e-19 -5.357224642820001e-19 -7.308895410799999e-19
-9.796382289429999e-19 -1.292768114830000e-18 -1.682651476790000e-18 -2.163404807970000e-18
-2.751076183080001e-18 -3.463849793469999e-18 -4.322269081149999e-18 -5.349480014669999e-18
-6.571496170040001e-18 -8.017487410369998e-18 -9.720094096849998e-18 -1.171576891430000e-17
-1.404514855540000e-17 -1.675345768199999e-17 -1.989094776680000e-17 -2.351337362030000e-17
-2.768251062300000e-17 -3.246671591300000e-17 -3.794153702879999e-17 -4.419037177210001e-17
-5.130518334510001e-17 -5.938727512059998e-17 -6.854812973600001e-17 -7.891031755779998e-17
-9.060847994070000e-17 -1.037903931190000e-16 -1.186181190040001e-16 -1.352692496300000e-16
-1.539382525040000e-16 -1.748379246540000e-16 -1.982009637450000e-16 -2.242816652729999e-16
-2.533577555030000e-16 -2.857323705460000e-16 -3.217361927370001e-16 -3.617297563010000e-16
-4.061059351960001e-16 -4.552926269579999e-16 -5.097556474010001e-16 -5.700018521250001e-16
-6.365825019540000e-16 -7.100968906969999e-16 -7.911962549469999e-16 -8.805879871250003e-16
-9.790401744969998e-16 -1.087386488560000e-15 -1.206531450990000e-15 -1.337456104270000e-15
-1.481224117100000e-15 -1.638988356990001e-15 -1.811997964750000e-15 -2.001605968020001e-15
-2.209277473889999e-15 -2.436598483380000e-15 -2.685285373750000e-15 -2.957195097869999e-15
-3.254336153580001e-15 -3.578880379660000e-15 -3.933175639090000e-15 -4.319759454960001e-15
-4.741373668590000e-15 -5.200980195100000e-15 -5.701777956360000e-15 -6.247221077620001e-15
-6.841038440039999e-15 -7.487254687849999e-15 -8.190212796380003e-15 -8.954598314269999e-15
-9.785465401850002e-15 -1.068826479600000e-14 -1.166887384120000e-14 -1.273362873710000e-14
-1.388935916220000e-14 -1.514342544650000e-14 -1.650375847740000e-14 -1.797890253510000e-14
-1.957806127050000e-14 -2.131114705190000e-14 -2.318883392190000e-14 -2.522261442630000e-14
-2.742486059300000e-14 -2.980888935810000e-14 -3.238903276050001e-14 -3.518071324610000e-14
-3.820052444850001e-14 -4.146631783889999e-14 -4.499729566540000e-14 -4.881411063180000e-14
-5.293897279909999e-14 -5.739576422390000e-14 -6.221016188900002e-14 -6.740976951650000e-14
-7.302425889749999e-14 -7.908552141780001e-14 -8.562783050530001e-14 -9.268801577790001e-14
-1.003056497240000e-13 -1.085232478070000e-13 -1.173864829530000e-13 -1.269444154300000e-13
-1.372497392370000e-13 -1.483590461439999e-13 -1.603331086600000e-13 -1.732371832640000e-13
-1.871413353280000e-13 -2.021207872760000e-13 -2.182562916279999e-13 -2.356345306840000e-13
-2.543485447279999e-13 -2.744981907850001e-13 -2.961906340760001e-13 -3.195408744900000e-13
-3.446723105350000e-13 -3.717173434370001e-13 -4.008180241880000e-13 -4.321267466010001e-13
-4.658069896000001e-13 -5.020341122220001e-13 -5.409962050440001e-13 -5.828950020039998e-13
-6.279468568770000e-13 -6.763837889520000e-13 -7.284546027709998e-13 -7.844260871550002e-13
-8.445842990809998e-13 -9.092359383700002e-13 -9.787098195780001e-13 -1.053358447910000e-12
-1.133559706440000e-12 -1.219718662530000e-12 -1.312269501680000e-12 -1.411677597870000e-12
-1.518441729910000e-12 -1.633096454020000e-12 -1.756214643640000e-12 -1.888410208170001e-12
-2.030341003100001e-12 -2.182711945070000e-12 -2.346278346080000e-12 -2.521849482290000e-12
-2.710292413740000e-12 -2.912536072569999e-12 -3.129575638610000e-12 -3.362477222250000e-12
-3.612382876220000e-12 -3.880515959289999e-12 -4.168186876230001e-12 -4.476799220720000e-12
-4.807856348959999e-12 -5.162968414269998e-12 -5.543859894860001e-12 -5.952377649070000e-12
-6.390499535030001e-12 -6.860343633960002e-12 -7.364178119450000e-12 -7.904431817440001e-12
-8.483705505440003e-12 -9.104784002110001e-12 -9.770649102760000e-12 -1.048449341920000e-11
-1.124973518740000e-11 -1.207003411020000e-11 -1.294930830700000e-11 -1.389175244750000e-11
-1.490185715300000e-11 -1.598442975130000e-11 -1.714461648150000e-11 -1.838792624890000e-11
-1.972025603740000e-11 -2.114791809470000e-11 -2.267766901550000e-11 -2.431674085090000e-11
-2.607287438959999e-11 -2.795435475740000e-11 -2.997004949970000e-11 -3.212944931730000e-11
-3.444271164110001e-11 -3.692070724270000e-11 -3.957507009100000e-11 -4.241825068210001e-11
-4.546357308190001e-11 -4.872529594040001e-11 -5.221867775270001e-11 -5.596004666290001e-11
-5.996687512439999e-11 -6.425785975579998e-11 -6.885300675050000e-11 -7.377372322890001e-11
-7.904291494179999e-11 -8.468509076830001e-11 -9.072647447900001e-11 -9.719512426789997e-11
-1.041210605920000e-10 -1.115364028970000e-10 -1.194755158400000e-10 -1.279751656720000e-10
-1.370746874910000e-10 -1.468161640990000e-10 -1.572446172919999e-10 -1.684082124270000e-10
-1.803584771970000e-10 -1.931505355900000e-10 -2.068433580900000e-10 -2.215000292480000e-10
-2.371880338150000e-10 -2.539795627370001e-10 -2.719518403760000e-10 -2.911874744390000e-10
-3.117748301770000e-10 -3.338084305400000e-10 -3.573893840859999e-10 -3.826258425630000e-10
-4.096334902250000e-10 -4.385360670720000e-10 -4.694659283620000e-10 -5.025646429150001e-10
-5.379836328860001e-10 -5.758848578809999e-10 -6.164415464839999e-10 -6.598389784760000e-10
-7.062753212539999e-10 -7.559625242040000e-10 -8.091272750320000e-10 -8.660120223489999e-10
-9.268760690780001e-10 -9.919967416050001e-10 -1.061670639890000e-9 -1.136214974180000e-9
-1.215968994200000e-9 -1.301295517460000e-9 -1.392582563180000e-9 -1.490245099500000e-9
-1.594726911560000e-9 -1.706502598900000e-9 -1.826079711120000e-9 -1.954001031370000e-9
-2.090847017850000e-9 -2.237238414290000e-9 -2.393839041020000e-9 -2.561358779290001e-9
-2.740556761900001e-9 -2.932244784720001e-9 -3.137290954190000e-9 -3.356623587070000e-9
-3.591235380050000e-9 -3.842187867730000e-9 -4.110616188930000e-9 -4.397734182630001e-9
-4.704839836410000e-9 -5.033321111619999e-9 -5.384662171310000e-9 -5.760450038959998e-9
-6.162381717470000e-9 -6.592271800420000e-9 -7.052060609590000e-9 -7.543822894960000e-9
-8.069777136250000e-9 -8.632295487359999e-9 -9.233914408279997e-9 -9.877346031849999e-9
-1.056549031610000e-8 -1.130144803690000e-8 -1.208853467750000e-8 -1.293029527950000e-8
-1.383052031890000e-8 -1.479326267960000e-8 -1.582285580000000e-8 -1.692393307300000e-8
-1.810144858700000e-8 -1.936069929980000e-8 -2.070734874390000e-8 -2.214745237030000e-8
-2.368748464300000e-8 -2.533436800480000e-8 -2.709550384460000e-8 -2.897880560340000e-8
-3.099273416740000e-8 -3.314633570550000e-8 -3.544928212060000e-8 -3.791191429450000e-8
-4.054528831970000e-8 -4.336122492390000e-8 -4.637236230779999e-8 -4.959221263249999e-8
-5.303522240680002e-8 -5.671683704499999e-8 -6.065356988270000e-8 -6.486307595790000e-8
-6.936423088690001e-8 -7.417721518590001e-8 -7.932360441489999e-8 -8.482646554540000e-8
-9.071045998119999e-8 -9.700195369180001e-8 -1.037291349490000e-7 -1.109221401910000e-7
-1.186131885780000e-7 -1.268367258300000e-7 -1.356295780040000e-7 -1.450311158730000e-7
-1.550834306660000e-7 -1.658315219240000e-7 -1.773234983350000e-7 -1.896107924220000e-7
-2.027483900520000e-7 -2.167950757870000e-7 -2.318136951630000e-7 -2.478714350770000e-7
-2.650401235189999e-7 -2.833965499900001e-7 -3.030228080300001e-7 -3.240066613920000e-7
-3.464419354710000e-7 -3.704289357540000e-7 -3.960748951390001e-7 -4.234944521199998e-7
-4.528101619710000e-7 -4.841530431950000e-7 -5.176631616770001e-7 -5.534902551459999e-7
-5.917944007100000e-7 -6.327467284599998e-7 -6.765301842880000e-7 -7.233403453459999e-7
-7.733862917509999e-7 -8.268915384240001e-7 -8.840950312160000e-7 -9.452522117459999e-7
-1.010636155680000e-6 -1.080538789540000e-6 -1.155272191450000e-6 -1.235169981540000e-6
-1.320588808360000e-6 -1.411909937680000e-6 -1.509540950980000e-6 -1.613917560980000e-6
-1.725505552450000e-6 -1.844802856840000e-6 -1.972341769910000e-6 -2.108691322390000e-6
-2.254459813990000e-6 -2.410297522220000e-6 -2.576899597940000e-6 -2.755009160530000e-6
-2.945420606470000e-6 -3.148983146009999e-6 -3.366604583630000e-6 -3.599255359119999e-6
-3.847972867160000e-6 -4.113866074689999e-6 -4.398120456479999e-6 -4.702003270840000e-6
-5.026869198950000e-6 -5.374166372710000e-6 -5.745442818020001e-6 -6.142353341930001e-6
-6.566666894320000e-6 -7.020274436710000e-6 -7.505197353100000e-6 -8.023596440150000e-6
-8.577781516440000e-6 -9.170221693600000e-6 -9.803556354590002e-6 -1.048060688790000e-5
-1.120438922940000e-5 -1.197812726770000e-5 -1.280526717240000e-5 -1.368949270720000e-5
-1.463474159830000e-5 -1.564522302740000e-5 -1.672543632920000e-5 -1.788019097360000e-5
-1.911462792270000e-5 -2.043424245570000e-5 -2.184490856280000e-5 -2.335290501529999e-5
-2.496494322670000e-5 -2.668819702760000e-5 -2.853033448510000e-5 -3.049955190660000e-5
-3.260461017740001e-5 -3.485487359060000e-5 -3.726035134130000e-5 -3.983174186479999e-5
-4.258048021340000e-5 -4.551878867970000e-5 -4.865973088560000e-5 -5.201726957400000e-5
-5.560632835420000e-5 -5.944285766939999e-5 -6.354390527240001e-5 -6.792769151510001e-5
-7.261368977739999e-5 -7.762271238220000e-5 -8.297700236740001e-5 -8.870033150930002e-5
-9.481810501649999e-5 -1.013574733450000e-4 -1.083474516110000e-4 -1.158190471060000e-4
-1.238053954610000e-4 -1.323419060380000e-4 -1.414664171460000e-4 -1.512193617630000e-4
-1.616439444230000e-4 -1.727863300400000e-4 -1.846958454250000e-4 -1.974251943490000e-4
-2.110306870270000e-4 -2.255724849640000e-4 -2.411148621630000e-4 -2.577264837480000e-4
-2.754807031250000e-4 -2.944558788630000e-4 -3.147357125670000e-4 -3.364096090439999e-4
-3.595730601960001e-4 -3.843280541090000e-4 -4.107835109050001e-4 -4.390557470090000e-4
-4.692689695800000e-4 -5.015558029260000e-4 -5.360578488230000e-4 -5.729262827790000e-4
-6.123224883350000e-4 -6.544187316340000e-4 -6.993988785690000e-4 -7.474591569250000e-4
-7.988089660230000e-4 -8.536717364870000e-4 -9.122858428320001e-4 -9.749055716570002e-4
-1.041802148350000e-3 -1.113264825200000e-3 -1.189602034060000e-3 -1.271142606430000e-3
-1.358237064290000e-3 -1.451258984700000e-3 -1.550606441290000e-3 -1.656703525830000e-3
-1.770001952820000e-3 -1.890982750140000e-3 -2.020158038590000e-3 -2.158072902860000e-3
-2.305307356430000e-3 -2.462478402420000e-3 -2.630242192260001e-3 -2.809296283160000e-3
-3.000381995440000e-3 -3.204286869530000e-3 -3.421847221980000e-3 -3.653950798940000e-3
-3.901539524260000e-3 -4.165612338450000e-3 -4.447228123080000e-3 -4.747508703699999e-3
-5.067641922450000e-3 -5.408884769600000e-3 -5.772566560680000e-3 -6.160092143279999e-3
-6.572945114870000e-3 -7.012691029130000e-3 -7.480980565260000e-3 -7.979552630090001e-3
-8.510237358680000e-3 -9.074958974010000e-3 -9.675738461000000e-3 -1.031469600430000e-2
-1.099405313300000e-2 -1.171613450820000e-2 -1.248336928330000e-2 -1.329829195720000e-2
-1.416354263440000e-2 -1.508186659740000e-2 -1.605611308510000e-2 -1.708923316720000e-2
-1.818427659060000e-2 -1.934438746790000e-2 -2.057279866860000e-2 -2.187282476490000e-2
-2.324785337840000e-2 -2.470133476570000e-2 -2.623676947910000e-2 -2.785769393290000e-2
-2.956766370830000e-2 -3.137023443320000e-2 -3.326894007740000e-2 -3.526726851869999e-2
-3.736863425090000e-2 -3.957634812650000e-2 -4.189358406180000e-2 -4.432334266440000e-2
-4.686841179690000e-2 -4.953132414460000e-2 -5.231431192470000e-2 -5.521925895530000e-2
-5.824765039380000e-2 -6.140052055900000e-2 -6.467839936800001e-2 -6.808125804550000e-2
-7.160845489919999e-2 -7.525868209980001e-2 -7.902991454950000e-2 -8.291936206570000e-2
-8.692342624429999e-2 -9.103766348150000e-2 -9.525675572330000e-2 -9.957449055700000e-2
-1.039837522480000e-1 -1.084765252310000e-1 -1.130439113890000e-1 -1.176761621190000e-1
-1.223627257520000e-1 -1.270923102210000e-1 -1.318529600710000e-1 -1.366321457750000e-1
-1.414168620640000e-1 -1.461937303170000e-1 -1.509490982670000e-1 -1.556691281580000e-1
-1.603398621870000e-1 -1.649472517060000e-1 -1.694771342460000e-1 -1.739151402680000e-1
-1.782465098800000e-1 -1.824557988640000e-1 -1.865264538040000e-1 -1.904402383500000e-1
-1.941764974220000e-1 -1.977112542150000e-1 -2.010161470350000e-1 -2.040572302280000e-1
-2.067936864680000e-1 -2.091765271980000e-1 -2.111473941960000e-1 -2.126376176750000e-1
-2.135677334530000e-1 -2.138477104960000e-1 -2.133781851810000e-1 -2.120530317080000e-1
-2.097636071620000e-1 -2.064049781420000e-1 -2.018843419130000e-1 -1.961316718980000e-1
-1.891123143860000e-1 -1.808408099830000e-1 -1.713945860470000e-1 -1.609253633840000e-1
-1.496651861190000e-1 -1.379230499310000e-1 -1.260674580600000e-1 -1.144904268020000e-1
-1.035504731150000e-1 -9.349761703200000e-2 -8.439517351839999e-2 -7.607552200830002e-2
-6.820711780990001e-2 -6.057594740050000e-2 -5.320485238300000e-2 -4.614610594110000e-2
-3.944981310720000e-2 -3.316300271130000e-2 -2.732870781300000e-2 -2.198498639250000e-2
-1.716391731730000e-2 -1.289056637000000e-2 -9.181980337500001e-3 -6.046227735070000e-3
-3.481586995500000e-3 -1.475946711020000e-3 -6.576360438840001e-6 9.596263905819999e-4
1.465243054460000e-3 1.560754458910000e-3 1.302266933850000e-3 7.487694026630000e-4
-4.076421093230000e-5 -1.009935446670000e-3 -2.106744628180000e-3 -3.284376076370000e-3
-4.500972978890000e-3 -5.718624657170000e-3 -6.901984331600000e-3 -8.016872082799999e-3
-9.029133195389999e-3 -9.903842596740001e-3 -1.060489662000000e-2 -1.109503852650000e-2
-1.133649524500000e-2 -1.129256912470000e-2 -1.093072633170000e-2 -1.022791799950000e-2
-9.179035222350000e-3 -7.809545448970000e-3 -6.193473203720000e-3 -4.475865860379999e-3
-2.857833535060000e-3 -1.528526384950000e-3 -6.172274447149999e-4 -1.474767026950000e-4
-8.931300612150000e-6 0.000000000000000e0 0.000000000000000e0 0.000000000000000e0
0.000000000000000e0 0.000000000000000e0 0.000000000000000e0 0.000000000000000e0
0.000000000000000e0 0.000000000000000e0 0.000000000000000e0 0.000000000000000e0
0.000000000000000e0 0.000000000000000e0 0.000000000000000e0 0.000000000000000e0
0.000000000000000e0 0.000000000000000e0 0.000000000000000e0 0.000000000000000e0
0.000000000000000e0 0.000000000000000e0 0.000000000000000e0 0.000000000000000e0
0.000000000000000e0 0.000000000000000e0 0.000000000000000e0 0.000000000000000e0
0.000000000000000e0 0.000000000000000e0 0.000000000000000e0 0.000000000000000e0
0.000000000000000e0 0.000000000000000e0 0.000000000000000e0 0.000000000000000e0
0.000000000000000e0 0.000000000000000e0 0.000000000000000e0 0.000000000000000e0
0.000000000000000e0 0.000000000000000e0 0.000000000000000e0 0.000000000000000e0
0.000000000000000e0 0.000000000000000e0 0.000000000000000e0 0.000000000000000e0
0.000000000000000e0 0.000000000000000e0 0.000000000000000e0 0.000000000000000e0
0.000000000000000e0 0.000000000000000e0 0.000000000000000e0 0.000000000000000e0
0.000000000000000e0 0.000000000000000e0 0.000000000000000e0 0.000000000000000e0
0.000000000000000e0 0.000000000000000e0 0.000000000000000e0 0.000000000000000e0
0.000000000000000e0 0.000000000000000e0 0.000000000000000e0 0.000000000000000e0
0.000000000000000e0 0.000000000000000e0 0.000000000000000e0 0.000000000000000e0
0.000000000000000e0 0.000000000000000e0 0.000000000000000e0 0.000000000000000e0
0.000000000000000e0 0.000000000000000e0 0.000000000000000e0 0.000000000000000e0
0.000000000000000e0 0.000000000000000e0 0.000000000000000e0 0.000000000000000e0
0.000000000000000e0 0.000000000000000e0 0.000000000000000e0 0.000000000000000e0
0.000000000000000e0 0.000000000000000e0 0.000000000000000e0 0.000000000000000e0
0.000000000000000e0 0.000000000000000e0 0.000000000000000e0 0.000000000000000e0
0.000000000000000e0 0.000000000000000e0 0.000000000000000e0 0.000000000000000e0
0.000000000000000e0 0.000000000000000e0 0.000000000000000e0 0.000000000000000e0
0.000000000000000e0 0.000000000000000e0 0.000000000000000e0 0.000000000000000e0
0.000000000000000e0 0.000000000000000e0 0.000000000000000e0 0.000000000000000e0
0.000000000000000e0 0.000000000000000e0 0.000000000000000e0 0.000000000000000e0
0.000000000000000e0 0.000000000000000e0 0.000000000000000e0 0.000000000000000e0
0.000000000000000e0 0.000000000000000e0 0.000000000000000e0 0.000000000000000e0
0.000000000000000e0 0.000000000000000e0 0.000000000000000e0 0.000000000000000e0
0.000000000000000e0 0.000000000000000e0 0.000000000000000e0 0.000000000000000e0
0.000000000000000e0 0.000000000000000e0 0.000000000000000e0 0.000000000000000e0
0.000000000000000e0 0.000000000000000e0 0.000000000000000e0 0.000000000000000e0
0.000000000000000e0 0.000000000000000e0 0.000000000000000e0 0.000000000000000e0
0.000000000000000e0 0.000000000000000e0 0.000000000000000e0 0.000000000000000e0
0.000000000000000e0 0.000000000000000e0 0.000000000000000e0 0.000000000000000e0
0.000000000000000e0 0.000000000000000e0 0.000000000000000e0 0.000000000000000e0
0.000000000000000e0 0.000000000000000e0 0.000000000000000e0 0.000000000000000e0
0.000000000000000e0 0.000000000000000e0 0.000000000000000e0 0.000000000000000e0
0.000000000000000e0 0.000000000000000e0 0.000000000000000e0 0.000000000000000e0
0.000000000000000e0 0.000000000000000e0 0.000000000000000e0 0.000000000000000e0
0.000000000000000e0 0.000000000000000e0 0.000000000000000e0 0.000000000000000e0
0.000000000000000e0 0.000000000000000e0 0.000000000000000e0 0.000000000000000e0
0.000000000000000e0 0.000000000000000e0 0.000000000000000e0 0.000000000000000e0
0.000000000000000e0 0.000000000000000e0 0.000000000000000e0 0.000000000000000e0
0.000000000000000e0 0.000000000000000e0 0.000000000000000e0 0.000000000000000e0
0.000000000000000e0 0.000000000000000e0 0.000000000000000e0 0.000000000000000e0
0.000000000000000e0 0.000000000000000e0 0.000000000000000e0 0.000000000000000e0
0.000000000000000e0 0.000000000000000e0 0.000000000000000e0 0.000000000000000e0
0.000000000000000e0 0.000000000000000e0 0.000000000000000e0 0.000000000000000e0
0.000000000000000e0 0.000000000000000e0 0.000000000000000e0 0.000000000000000e0
0.000000000000000e0 0.000000000000000e0 0.000000000000000e0 0.000000000000000e0
0.000000000000000e0 0.000000000000000e0 0.000000000000000e0 0.000000000000000e0
0.000000000000000e0 0.000000000000000e0 0.000000000000000e0 0.000000000000000e0
0.000000000000000e0 0.000000000000000e0 0.000000000000000e0 0.000000000000000e0
0.000000000000000e0 0.000000000000000e0 0.000000000000000e0 0.000000000000000e0
0.000000000000000e0 0.000000000000000e0 0.000000000000000e0 0.000000000000000e0
0.000000000000000e0 0.000000000000000e0 0.000000000000000e0 0.000000000000000e0
0.000000000000000e0 0.000000000000000e0 0.000000000000000e0 0.000000000000000e0
0.000000000000000e0 0.000000000000000e0 0.000000000000000e0 0.000000000000000e0
0.000000000000000e0 0.000000000000000e0 0.000000000000000e0 0.000000000000000e0
0.000000000000000e0 0.000000000000000e0 0.000000000000000e0 0.000000000000000e0
0.000000000000000e0 0.000000000000000e0 0.000000000000000e0 0.000000000000000e0
0.000000000000000e0 0.000000000000000e0 0.000000000000000e0 0.000000000000000e0
0.000000000000000e0 0.000000000000000e0 0.000000000000000e0 0.000000000000000e0
0.000000000000000e0 0.000000000000000e0 0.000000000000000e0 0.000000000000000e0
0.000000000000000e0 0.000000000000000e0 0.000000000000000e0 0.000000000000000e0
0.000000000000000e0 0.000000000000000e0 0.000000000000000e0 0.000000000000000e0
0.000000000000000e0 0.000000000000000e0 0.000000000000000e0
</PP_QIJ.1.5>
<PP_QIJ.1.6 first_index="1" second_index="6" composite_index="16">
0.000000000000000e0 1.463874861310000e-23 2.421925256700000e-22 1.267951912990000e-21
4.144526757820000e-21 1.046579976670000e-20 2.244889794909999e-20 4.302491256780000e-20
7.593915873140001e-20 1.258618309670000e-19 1.985099813850000e-19 3.007818227920000e-19
4.409044407000001e-19 6.285960860860000e-19 8.752443154610001e-19 1.194101346730000e-18
1.600498109190000e-18 2.112078584040000e-18 2.749056159320000e-18 3.534493859639999e-18
4.494610458960001e-18 5.659114642599997e-18 7.061569555809999e-18 8.739790259090004e-18
1.073627680820000e-17 1.309868588840000e-17 1.588034416150000e-17 1.914080672810000e-17
2.294646437199999e-17 2.737120353820000e-17 3.249712329620000e-17 3.841531387350000e-17
4.522670169089999e-17 5.304296621080001e-17 6.198753431580002e-17 7.219665837009998e-17
8.382058458449999e-17 9.702481880860001e-17 1.119914974130000e-16 1.289208715060000e-16
1.480329133460000e-16 1.695690544949999e-16 1.937940659410000e-16 2.209980912389999e-16
2.514988444900000e-16 2.856439859169999e-16 3.238136886940000e-16 3.664234117660000e-16
4.139268944360001e-16 4.668193897110001e-16 5.256411546350000e-16 5.909812172180001e-16
6.634814409730000e-16 7.438409096900003e-16 8.328206566940000e-16 9.312487646579999e-16
1.040025863940000e-15 1.160131059460000e-15 1.292628318430000e-15 1.438673353480000e-15
1.599521038280000e-15 1.776533395719999e-15 1.971188201200000e-15 2.185088247070001e-15
2.419971317469999e-15 2.677720926439999e-15 2.960377875840001e-15 3.270152694200001e-15
3.609439021470000e-15 3.980828009809999e-15 4.387123815450000e-15 4.831360262080000e-15
5.316818762190000e-15 5.847047588880000e-15 6.425882597400000e-15 7.057469502879998e-15
7.746287828440001e-15 8.497176645889997e-15 9.315362240290002e-15 1.020648783900000e-14
1.117664555570000e-14 1.223241071160000e-14 1.338087870560000e-14 1.462970462100000e-14
1.598714576580000e-14 1.746210736070000e-14 1.906419160280000e-14 2.080375035060000e-14
2.269194169079999e-14 2.474079066989999e-14 2.696325449070000e-14 2.937329249550000e-14
3.198594128359999e-14 3.481739533110000e-14 3.788509351090000e-14 4.120781193810000e-14
4.480576359370001e-14 4.870070521680001e-14 5.291605198590002e-14 5.747700054759999e-14
6.241066099389998e-14 6.774619842750001e-14 7.351498480270001e-14 7.975076177770002e-14
8.648981536549998e-14 9.377116322700003e-14 1.016367555100000e-13 1.101316902030000e-13
1.193044440300000e-13 1.292071200130000e-13 1.398957128700000e-13 1.514303935330000e-13
1.638758141400000e-13 1.773014349570001e-13 1.917818748030000e-13 2.073972866180000e-13
2.242337600030000e-13 2.423837526020000e-13 2.619465524070001e-13 2.830287731570000e-13
3.057448851990000e-13 3.302177842890001e-13 3.565794010629999e-13 3.849713540200000e-13
4.155456491189999e-13 4.484654292690001e-13 4.839057772580001e-13 5.220545758789998e-13
5.631134293070001e-13 6.072986500349998e-13 6.548423160150001e-13 7.059934029430003e-13
7.610189969850001e-13 8.202055936290000e-13 8.838604887110002e-13 9.523132681230001e-13
1.025917403150000e-12 1.105051958840000e-12 1.190123423420000e-12 1.281567667240000e-12
1.379852040260000e-12 1.485477618060000e-12 1.598981606490001e-12 1.720939916380000e-12
1.851969920090000e-12 1.992733402700000e-12 2.143939721570000e-12 2.306349188700000e-12
2.480776691800000e-12 2.668095570520000e-12 2.869241765890001e-12 3.085218262090000e-12
3.317099840990001e-12 3.566038171370001e-12 3.833267256300000e-12 4.120109263700000e-12
4.427980766839999e-12 4.758399423680001e-12 5.112991125360002e-12 5.493497647129999e-12
5.901784836339998e-12 6.339851375420000e-12 6.809838159850001e-12 7.314038334030000e-12
7.854908031200001e-12 8.435077866290003e-12 9.057365234569998e-12 9.724787472059997e-12
1.044057593810000e-11 1.120819108400000e-11 1.203133857740000e-11 1.291398655450000e-11
1.386038408090000e-11 1.487508090270000e-11 1.596294858040000e-11 1.712920309999999e-11
1.837942906560000e-11 1.971960558210000e-11 2.115613394780000e-11 2.269586728100000e-11
2.434614221609999e-11 2.611481281380001e-11 2.801028683800000e-11 3.004156456590001e-11
3.221828030630000e-11 3.455074681460001e-11 3.705000280679999e-11 3.972786378689999e-11
4.259697641970000e-11 4.567087669310002e-11 4.896405213609999e-11 5.249200837230001e-11
5.627134031090001e-11 6.031980829790000e-11 6.465641957170000e-11 6.930151539129998e-11
7.427686423169999e-11 7.960576146789999e-11 8.531313599739999e-11 9.142566428340000e-11
9.797189233490002e-11 1.049823661720000e-10 1.124897713690000e-10 1.205290823020000e-10
1.291377217750000e-10 1.383557317500000e-10 1.482259559410000e-10 1.587942351030000e-10
1.701096159000000e-10 1.822245742780000e-10 1.951952543660000e-10 2.090817239780000e-10
2.239482478550000e-10 2.398635798940000e-10 2.569012756689999e-10 2.751400266520000e-10
2.946640176480000e-10 3.155633090330000e-10 3.379342455359999e-10 3.618798933910000e-10
3.875105078229999e-10 4.149440329820001e-10 4.443066365570000e-10 4.757332814920002e-10
5.093683373499999e-10 5.453662340890000e-10 5.838921611850000e-10 6.251228152330000e-10
6.692471993929999e-10 7.164674782609999e-10 7.669998920150000e-10 8.210757339290000e-10
8.789423956420000e-10 9.408644848780000e-10 1.007125020630000e-9 1.078026711170000e-9
1.153893320600000e-9 1.235071130100000e-9 1.321930500420000e-9 1.414867542600000e-9
1.514305904420000e-9 1.620698680560000e-9 1.734530455160000e-9 1.856319485670000e-9
1.986620038070000e-9 2.126024883720000e-9 2.275167969090000e-9 2.434727270350000e-9
2.605427845530000e-9 2.788045098040000e-9 2.983408266010001e-9 3.192404153150000e-9
3.415981117900000e-9 3.655153338539999e-9 3.911005373530001e-9 4.184697037389999e-9
4.477468613910000e-9 4.790646430160001e-9 5.125648815970000e-9 5.483992475870000e-9
5.867299301700001e-9 6.277303656489998e-9 6.715860162159998e-9 7.184952025909999e-9
7.686699942359999e-9 8.223371611460001e-9 8.797391914540000e-9 9.411353794070001e-9
1.006802988570000e-8 1.077038495460000e-8 1.152158919180000e-8 1.232503242940000e-8
1.318433933900000e-8 1.410338568090000e-8 1.508631567580000e-8 1.613756057810000e-8
1.726185853290000e-8 1.846427580530000e-8 1.975022947710000e-8 2.112551171220000e-8
2.259631569900000e-8 2.416926338550000e-8 2.585143513160000e-8 2.765040140940000e-8
2.957425669540000e-8 3.163165570390000e-8 3.383185212330000e-8 3.618474003050001e-8
3.870089816520000e-8 4.139163726380000e-8 4.426905066340001e-8 4.734606840160000e-8
5.063651505390000e-8 5.415517156640000e-8 5.791784135960000e-8 6.194142099919999e-8
6.624397574769998e-8 7.084482033500004e-8 7.576460530760000e-8 8.102540934229998e-8
8.665083793539999e-8 9.266612890810002e-8 9.909826519890002e-8 1.059760954450000e-7
1.133304628910000e-7 1.211943432020000e-7 1.296029917900000e-7 1.385941013200000e-7
1.482079700850000e-7 1.584876820129999e-7 1.694792991040000e-7 1.812320671530000e-7
1.937986356770000e-7 2.072352930330000e-7 2.216022177630000e-7 2.369637472950000e-7
2.533886652030000e-7 2.709505082920000e-7 2.897278948890000e-7 3.098048757970000e-7
3.312713094829999e-7 3.542232631650000e-7 3.787634415910000e-7 4.050016454170001e-7
4.330552612360000e-7 4.630497854310000e-7 4.951193841900000e-7 5.294074921870000e-7
5.660674525919999e-7 6.052632012540000e-7 6.471699981200000e-7 6.919752091510000e-7
7.398791421980000e-7 7.910959405920002e-7 8.458545384110000e-7 9.043996816930001e-7
9.669930201289999e-7 1.033914274130000e-6 1.105462482430000e-6 1.181957335850000e-6
1.263740603050000e-6 1.351177654770000e-6 1.444659093260000e-6 1.544602494150000e-6
1.651454268560000e-6 1.765691653800000e-6 1.887824841380000e-6 2.018399251950000e-6
2.157997967290000e-6 2.307244330100000e-6 2.466804723270000e-6 2.637391540960000e-6
2.819766364760001e-6 3.014743359050000e-6 3.223192900760000e-6 3.446045459530000e-6
3.684295745860000e-6 3.939007145350000e-6 4.211316459160000e-6 4.502438971509999e-6
4.813673867039999e-6 5.146410021890000e-6 5.502132194650001e-6 5.882427644400000e-6
6.288993205550000e-6 6.723642850950000e-6 7.188315776920000e-6 7.685085046170002e-6
8.216166827219997e-6 8.783930271390000e-6 9.390908071300000e-6 1.003980774800000e-5
1.073352371690000e-5 1.147515018630000e-5 1.226799494560000e-5 1.311559410520000e-5
1.402172785330000e-5 1.499043729910000e-5 1.602604247890000e-5 1.713316160340000e-5
1.831673163330000e-5 1.958203027320000e-5 2.093469948370000e-5 2.238077061320000e-5
2.392669126440000e-5 2.557935401200000e-5 2.734612710090000e-5 2.923488726040000e-5
3.125405478030001e-5 3.341263100450000e-5 3.572023840780000e-5 3.818716343460000e-5
4.082440228820000e-5 4.364370987410000e-5 4.665765211360001e-5 4.987966185920000e-5
5.332409865890000e-5 5.700631263320000e-5 6.094271274690000e-5 6.515083977689999e-5
6.964944429650000e-5 7.445857002139999e-5 7.959964288150001e-5 8.509556621200002e-5
9.097082247930000e-5 9.725158198920003e-5 1.039658190520000e-4 1.111434361140000e-4
1.188163963890000e-4 1.270188655870000e-4 1.357873633240000e-4 1.451609249080000e-4
1.551812741690000e-4 1.658930080990000e-4 1.773437940900000e-4 1.895845806190000e-4
2.026698222880000e-4 2.166577201700000e-4 2.316104784950000e-4 2.475945787630000e-4
2.646810724400001e-4 2.829458934770001e-4 3.024701919530000e-4 3.233406902480001e-4
3.456500632200000e-4 3.694973439479999e-4 3.949883567350000e-4 4.222361791109999e-4
4.513616347360000e-4 4.824938191700000e-4 5.157706606340000e-4 5.513395179750001e-4
5.893578181860000e-4 6.299937359839999e-4 6.734269180509999e-4 7.198492547099999e-4
7.694657019499999e-4 8.224951568689999e-4 8.791713897379999e-4 9.397440360740001e-4
1.004479652260000e-3 1.073662838400000e-3 1.147597432300000e-3 1.226607778520000e-3
1.311040076780000e-3 1.401263814010000e-3 1.497673284480000e-3 1.600689202690000e-3
1.710760413770000e-3 1.828365706170000e-3 1.954015731690000e-3 2.088255037790000e-3
2.231664217230000e-3 2.384862180150000e-3 2.548508553480000e-3 2.723306212760001e-3
2.910003950950000e-3 3.109399288910000e-3 3.322341431770000e-3 3.549734374940000e-3
3.792540163280000e-3 4.051782306040000e-3 4.328549349550000e-3 4.623998608850000e-3
4.939360058080000e-3 5.275940378350001e-3 5.635127160369999e-3 6.018393257010000e-3
6.427301279310001e-3 6.863508226830001e-3 7.328770240530000e-3 7.824947463470000e-3
8.354008990750000e-3 8.918037886490000e-3 9.519236240849999e-3 1.015993023520000e-2
1.084257517760000e-2 1.156976046570000e-2 1.234421442430000e-2 1.316880896100000e-2
1.404656397150000e-2 1.498065141900000e-2 1.597439900020000e-2 1.703129330180000e-2
1.815498233650000e-2 1.934927733760000e-2 2.061815367600000e-2 2.196575074960000e-2
2.339637067950000e-2 2.491447563320000e-2 2.652468357680000e-2 2.823176224260000e-2
3.004062108330000e-2 3.195630096570000e-2 3.398396134250000e-2 3.612886462740000e-2
3.839635748340000e-2 4.079184872710000e-2 4.332078354340000e-2 4.598861370170000e-2
4.880076346740000e-2 5.176259091250000e-2 5.487934434230000e-2 5.815611358329999e-2
6.159777591299999e-2 6.520893645929999e-2 6.899386296080000e-2 7.295641486030000e-2
7.709996679540000e-2 8.142732667240001e-2 8.594064864410001e-2 9.064134147239999e-2
9.552997294359999e-2 1.006061712090000e-1 1.058685241550000e-1 1.113144781640000e-1
1.169402378900000e-1 1.227406689590000e-1 1.287092057980000e-1 1.348377670820000e-1
1.411166815280000e-1 1.475346270500000e-1 1.540785863950000e-1 1.607338225310000e-1
1.674838769910000e-1 1.743105942180000e-1 1.811941745770000e-1 1.881132580980000e-1
1.950450400670000e-1 2.019654183810000e-1 2.088491708670000e-1 2.156701586780000e-1
2.224015492720000e-1 2.290160493420000e-1 2.354861344360000e-1 2.417842578660000e-1
2.478830170350000e-1 2.537552505590000e-1 2.593740348970000e-1 2.647125449400000e-1
2.697437396490000e-1 2.744398321530000e-1 2.787715044750000e-1 2.827068314610000e-1
2.862098877790000e-1 2.892390275830000e-1 2.917448502800000e-1 2.936678994430000e-1
2.949361870470000e-1 2.954626928750000e-1 2.951430597780000e-1 2.938537884930000e-1
2.914513279530000e-1 2.877725523760000e-1 2.826372045320000e-1 2.758529491790000e-1
2.672236982240000e-1 2.565618070360000e-1 2.437045570120000e-1 2.285349804540000e-1
2.110064901330000e-1 1.911698876230000e-1 1.692000955400000e-1 1.454183860850000e-1
1.203040481750000e-1 9.448760732420000e-2 6.871644869240000e-2 4.378407288040000e-2
2.041815622490000e-2 -8.666336811470000e-4 -1.992210958490000e-2 -3.705345229540000e-2
-5.288813063569999e-2 -6.782468598960000e-2 -8.179928739310000e-2 -9.469263692910001e-2
-1.063922032050000e-1 -1.167943175500000e-1 -1.258062563640000e-1 -1.333483787740000e-1
-1.393562441700000e-1 -1.437826846180000e-1 -1.465997202520000e-1 -1.478002572380000e-1
-1.473994074940000e-1 -1.454353272030000e-1 -1.419693792540000e-1 -1.370855221290000e-1
-1.308888004650000e-1 -1.235030042820000e-1 -1.150676397410000e-1 -1.057346049640000e-1
-9.566501211400000e-2 -8.502667101380000e-2 -7.399252664540001e-2 -6.274011769830000e-2
-5.145175742330000e-2 -4.031496769490000e-2 -2.952260128960000e-2 -1.927219185920000e-2
-9.764138286670001e-3 -1.198353131390000e-3 6.231136439029999e-3 1.234435364620000e-2
1.698720891750000e-2 2.004788512890000e-2 2.147816110110000e-2 2.131874698170000e-2
1.972500350380000e-2 1.698448761280000e-2 1.350937453470000e-2 9.776650198570000e-3
6.250273068889999e-3 3.346789882150000e-3 1.352821279130000e-3 3.235247271730000e-4
1.959536613770000e-5 0.000000000000000e0 0.000000000000000e0 0.000000000000000e0
0.000000000000000e0 0.000000000000000e0 0.000000000000000e0 0.000000000000000e0
0.000000000000000e0 0.000000000000000e0 0.000000000000000e0 0.000000000000000e0
0.000000000000000e0 0.000000000000000e0 0.000000000000000e0 0.000000000000000e0
0.000000000000000e0 0.000000000000000e0 0.000000000000000e0 0.000000000000000e0
0.000000000000000e0 0.000000000000000e0 0.000000000000000e0 0.000000000000000e0
0.000000000000000e0 0.000000000000000e0 0.000000000000000e0 0.000000000000000e0
0.000000000000000e0 0.000000000000000e0 0.000000000000000e0 0.000000000000000e0
0.000000000000000e0 0.000000000000000e0 0.000000000000000e0 0.000000000000000e0
0.000000000000000e0 0.000000000000000e0 0.000000000000000e0 0.000000000000000e0
0.000000000000000e0 0.000000000000000e0 0.000000000000000e0 0.000000000000000e0
0.000000000000000e0 0.000000000000000e0 0.000000000000000e0 0.000000000000000e0
0.000000000000000e0 0.000000000000000e0 0.000000000000000e0 0.000000000000000e0
0.000000000000000e0 0.000000000000000e0 0.000000000000000e0 0.000000000000000e0
0.000000000000000e0 0.000000000000000e0 0.000000000000000e0 0.000000000000000e0
0.000000000000000e0 0.000000000000000e0 0.000000000000000e0 0.000000000000000e0
0.000000000000000e0 0.000000000000000e0 0.000000000000000e0 0.000000000000000e0
0.000000000000000e0 0.000000000000000e0 0.000000000000000e0 0.000000000000000e0
0.000000000000000e0 0.000000000000000e0 0.000000000000000e0 0.000000000000000e0
0.000000000000000e0 0.000000000000000e0 0.000000000000000e0 0.000000000000000e0
0.000000000000000e0 0.000000000000000e0 0.000000000000000e0 0.000000000000000e0
0.000000000000000e0 0.000000000000000e0 0.000000000000000e0 0.000000000000000e0
0.000000000000000e0 0.000000000000000e0 0.000000000000000e0 0.000000000000000e0
0.000000000000000e0 0.000000000000000e0 0.000000000000000e0 0.000000000000000e0
0.000000000000000e0 0.000000000000000e0 0.000000000000000e0 0.000000000000000e0
0.000000000000000e0 0.000000000000000e0 0.000000000000000e0 0.000000000000000e0
0.000000000000000e0 0.000000000000000e0 0.000000000000000e0 0.000000000000000e0
0.000000000000000e0 0.000000000000000e0 0.000000000000000e0 0.000000000000000e0
0.000000000000000e0 0.000000000000000e0 0.000000000000000e0 0.000000000000000e0
0.000000000000000e0 0.000000000000000e0 0.000000000000000e0 0.000000000000000e0
0.000000000000000e0 0.000000000000000e0 0.000000000000000e0 0.000000000000000e0
0.000000000000000e0 0.000000000000000e0 0.000000000000000e0 0.000000000000000e0
0.000000000000000e0 0.000000000000000e0 0.000000000000000e0 0.000000000000000e0
0.000000000000000e0 0.000000000000000e0 0.000000000000000e0 0.000000000000000e0
0.000000000000000e0 0.000000000000000e0 0.000000000000000e0 0.000000000000000e0
0.000000000000000e0 0.000000000000000e0 0.000000000000000e0 0.000000000000000e0
0.000000000000000e0 0.000000000000000e0 0.000000000000000e0 0.000000000000000e0
0.000000000000000e0 0.000000000000000e0 0.000000000000000e0 0.000000000000000e0
0.000000000000000e0 0.000000000000000e0 0.000000000000000e0 0.000000000000000e0
0.000000000000000e0 0.000000000000000e0 0.000000000000000e0 0.000000000000000e0
0.000000000000000e0 0.000000000000000e0 0.000000000000000e0 0.000000000000000e0
0.000000000000000e0 0.000000000000000e0 0.000000000000000e0 0.000000000000000e0
0.000000000000000e0 0.000000000000000e0 0.000000000000000e0 0.000000000000000e0
0.000000000000000e0 0.000000000000000e0 0.000000000000000e0 0.000000000000000e0
0.000000000000000e0 0.000000000000000e0 0.000000000000000e0 0.000000000000000e0
0.000000000000000e0 0.000000000000000e0 0.000000000000000e0 0.000000000000000e0
0.000000000000000e0 0.000000000000000e0 0.000000000000000e0 0.000000000000000e0
0.000000000000000e0 0.000000000000000e0 0.000000000000000e0 0.000000000000000e0
0.000000000000000e0 0.000000000000000e0 0.000000000000000e0 0.000000000000000e0
0.000000000000000e0 0.000000000000000e0 0.000000000000000e0 0.000000000000000e0
0.000000000000000e0 0.000000000000000e0 0.000000000000000e0 0.000000000000000e0
0.000000000000000e0 0.000000000000000e0 0.000000000000000e0 0.000000000000000e0
0.000000000000000e0 0.000000000000000e0 0.000000000000000e0 0.000000000000000e0
0.000000000000000e0 0.000000000000000e0 0.000000000000000e0 0.000000000000000e0
0.000000000000000e0 0.000000000000000e0 0.000000000000000e0 0.000000000000000e0
0.000000000000000e0 0.000000000000000e0 0.000000000000000e0 0.000000000000000e0
0.000000000000000e0 0.000000000000000e0 0.000000000000000e0 0.000000000000000e0
0.000000000000000e0 0.000000000000000e0 0.000000000000000e0 0.000000000000000e0
0.000000000000000e0 0.000000000000000e0 0.000000000000000e0 0.000000000000000e0
0.000000000000000e0 0.000000000000000e0 0.000000000000000e0 0.000000000000000e0
0.000000000000000e0 0.000000000000000e0 0.000000000000000e0 0.000000000000000e0
0.000000000000000e0 0.000000000000000e0 0.000000000000000e0 0.000000000000000e0
0.000000000000000e0 0.000000000000000e0 0.000000000000000e0 0.000000000000000e0
0.000000000000000e0 0.000000000000000e0 0.000000000000000e0 0.000000000000000e0
0.000000000000000e0 0.000000000000000e0 0.000000000000000e0 0.000000000000000e0
0.000000000000000e0 0.000000000000000e0 0.000000000000000e0 0.000000000000000e0
0.000000000000000e0 0.000000000000000e0 0.000000000000000e0 0.000000000000000e0
0.000000000000000e0 0.000000000000000e0 0.000000000000000e0 0.000000000000000e0
0.000000000000000e0 0.000000000000000e0 0.000000000000000e0 0.000000000000000e0
0.000000000000000e0 0.000000000000000e0 0.000000000000000e0 0.000000000000000e0
0.000000000000000e0 0.000000000000000e0 0.000000000000000e0
</PP_QIJ.1.6>
<PP_QIJ.2.2 first_index="2" second_index="2" composite_index="3">
0.000000000000000e0 8.385430645500001e-13 3.410780434030000e-12 7.804135234540004e-12
1.410947546740000e-11 2.242123886850000e-11 3.283756213570000e-11 4.546041467500000e-11
6.039573702040001e-11 7.775358408840000e-11 9.764827343449998e-11 1.201985386810000e-10
1.455276882990000e-10 1.737637699190000e-10 2.050397403720000e-10 2.394936416540000e-10
2.772687830040000e-10 3.185139293320000e-10 3.633834961909999e-10 4.120377515250000e-10
4.646430244339999e-10 5.213719211859999e-10 5.824035487280001e-10 6.479237459490000e-10
7.181253229840000e-10 7.932083087850001e-10 8.733802073040003e-10 9.588562625350001e-10
1.049859732740000e-9 1.146622174150000e-9 1.249383734560000e-9 1.358393456970000e-9
1.473909593780000e-9 1.596199931930000e-9 1.725542129080000e-9 1.862224061650000e-9
2.006544184660000e-9 2.158811904150000e-9 2.319347962340000e-9 2.488484836210000e-9
2.666567149700000e-9 2.853952100190000e-9 3.051009899699999e-9 3.258124231260000e-9
3.475692720980000e-9 3.704127426500000e-9 3.943855342099999e-9 4.195318921290000e-9
4.458976617470000e-9 4.735303442930001e-9 5.024791547419999e-9 5.327950816360001e-9
5.645309489730000e-9 5.977414802189998e-9 6.324833645270001e-9 6.688153252200001e-9
7.067981906480001e-9 7.464949674370001e-9 7.879709163089999e-9 8.312936304599999e-9
8.765331166379999e-9 9.237618790279999e-9 9.730550059770000e-9 1.024490259730000e-8
1.078148169190000e-8 1.134112125970000e-8 1.192468483560000e-8 1.253306660080000e-8
1.316719244410000e-8 1.382802106080000e-8 1.451654508770000e-8 1.523379227890000e-8
1.598082671980000e-8 1.675875008450001e-8 1.756870293500000e-8 1.841186606540001e-8
1.928946189210000e-8 2.020275589120001e-8 2.115305808560000e-8 2.214172458270000e-8
2.317015916450001e-8 2.423981493230000e-8 2.535219600750000e-8 2.650885929100000e-8
2.771141628190000e-8 2.896153495929999e-8 3.026094172720001e-8 3.161142342720000e-8
3.301482941910001e-8 3.447307373260000e-8 3.598813729300000e-8 3.756207022210000e-8
3.919699421849999e-8 4.089510501870000e-8 4.265867494219999e-8 4.449005552309999e-8
4.639168023329999e-8 4.836606729520000e-8 5.041582259460000e-8 5.254364268930000e-8
5.475231792240001e-8 5.704473564110000e-8 5.942388352560001e-8 6.189285303109999e-8
6.445484294700000e-8 6.711316307900001e-8 6.987123805390000e-8 7.273261125730000e-8
7.570094890240000e-8 7.878004424050000e-8 8.197382191240001e-8 8.528634244939999e-8
8.872180692809998e-8 9.228456178170001e-8 9.597910377760002e-8 9.981008516390000e-8
1.037823189890000e-7 1.079007846060000e-7 1.121706333630000e-7 1.165971944840000e-7
1.211859811560000e-7 1.259426968190000e-7 1.308732416710000e-7 1.359837193950000e-7
1.412804441160000e-7 1.467699475920000e-7 1.524589866510000e-7 1.583545508850001e-7
1.644638705950000e-7 1.707944250200000e-7 1.773539508400000e-7 1.841504509610000e-7
1.911922036120000e-7 1.984877717410000e-7 2.060460127400000e-7 2.138760884880000e-7
2.219874757500000e-7 2.303899769170000e-7 2.390937311230000e-7 2.481092257260000e-7
2.574473081960000e-7 2.671191983910000e-7 2.771365012640000e-7 2.875112199890000e-7
2.982557695480001e-7 3.093829907650000e-7 3.209061648300000e-7 3.328390283050000e-7
3.451957886470000e-7 3.579911402600000e-7 3.712402810890000e-7 3.849589297740000e-7
3.991633433990000e-7 4.138703358280000e-7 4.290972966830001e-7 4.448622109430000e-7
4.611836792359999e-7 4.780809387970001e-7 4.955738851510000e-7 5.136830945270000e-7
5.324298470410000e-7 5.518361506570000e-7 5.719247659580001e-7 5.927192317830000e-7
6.142438917040000e-7 6.365239214190000e-7 6.595853570720001e-7 6.834551245429999e-7
7.081610697050000e-7 7.337319897520000e-7 7.601976655400000e-7 7.875888950800000e-7
8.159375281130000e-7 8.452765019020001e-7 8.756398782300000e-7 9.070628816299999e-7
9.395819389290001e-7 9.732347201600001e-7 1.008060180800000e-6 1.044098605520000e-6
1.081391653340000e-6 1.119982404380000e-6 1.159915408170000e-6 1.201236733600000e-6
1.243994020560000e-6 1.288236533340000e-6 1.334015215840000e-6 1.381382748700000e-6
1.430393608220000e-6 1.481104127520000e-6 1.533572559480000e-6 1.587859142110000e-6
1.644026165920000e-6 1.702138043680000e-6 1.762261382510000e-6 1.824465058440000e-6
1.888820293460000e-6 1.955400735250000e-6 2.024282539510000e-6 2.095544455190000e-6
2.169267912560000e-6 2.245537114250000e-6 2.324439129410000e-6 2.406063991030000e-6
2.490504796599999e-6 2.577857812150000e-6 2.668222579840000e-6 2.761702029170000e-6
2.858402591970000e-6 2.958434321310000e-6 3.061911014410001e-6 3.168950339730000e-6
3.279673968400000e-6 3.394207709940000e-6 3.512681652930000e-6 3.635230309970000e-6
3.761992768030000e-6 3.893112843520000e-6 4.028739242810000e-6 4.169025728170000e-6
4.314131289230000e-6 4.464220320430000e-6 4.619462804249999e-6 4.780034500800000e-6
4.946117143860000e-6 5.117898643400000e-6 5.295573295110000e-6 5.479341996950000e-6
5.669412473030001e-6 5.865999505060000e-6 6.069325171750000e-6 6.279619096120001e-6
6.497118701330002e-6 6.722069475119998e-6 6.954725243160000e-6 7.195348451649998e-6
7.444210459670000e-6 7.701591841120001e-6 7.967782697040001e-6 8.243082978480000e-6
8.527802820270001e-6 8.822262886139999e-6 9.126794725310001e-6 9.441741141480000e-6
9.767456573860001e-6 1.010430749150000e-5 1.045267280060000e-5 1.081294426580000e-5
1.118552694560000e-5 1.157083964270000e-5 1.196931536910000e-5 1.238140182710000e-5
1.280756190720000e-5 1.324827420160000e-5 1.370403353590000e-5 1.417535151850000e-5
1.466275710860000e-5 1.516679720310000e-5 1.568803724370000e-5 1.622706184400000e-5
1.678447543860000e-5 1.736090295250000e-5 1.795699049510000e-5 1.857340607590000e-5
1.921084034480000e-5 1.987000735810000e-5 2.055164536930000e-5 2.125651764670000e-5
2.198541331910000e-5 2.273914824910000e-5 2.351856593670000e-5 2.432453845240000e-5
2.515796740220000e-5 2.601978492530000e-5 2.691095472420000e-5 2.783247313060000e-5
2.878537020650000e-5 2.977071088209999e-5 3.078959613260000e-5 3.184316419380000e-5
3.293259181830000e-5 3.405909557480000e-5 3.522393318939999e-5 3.642840493370000e-5
3.767385505730001e-5 3.896167327020001e-5 4.029329627300000e-5 4.167020933940001e-5
4.309394795150000e-5 4.456609948900000e-5 4.608830497520000e-5 4.766226088170001e-5
4.928972099199999e-5 5.097249832810000e-5 5.271246714220000e-5 5.451156497180000e-5
5.637179476620000e-5 5.829522708160000e-5 6.028400234989999e-5 6.234033322290000e-5
6.446650699400001e-5 6.666488809979999e-5 6.893792070500000e-5 7.128813137230000e-5
7.371813182100000e-5 7.623062177720000e-5 7.882839191490000e-5 8.151432689960000e-5
8.429140852650001e-5 8.716271896460000e-5 9.013144410820001e-5 9.320087703450000e-5
9.637442158030002e-5 9.965559603070002e-5 1.030480369310000e-4 1.065555030210000e-4
1.101818793010000e-4 1.139311812250000e-4 1.178075590370000e-4 1.218153022420000e-4
1.259588442250000e-4 1.302427670160000e-4 1.346718062180000e-4 1.392508560810000e-4
1.439849747470000e-4 1.488793896670000e-4 1.539395031800000e-4 1.591708982850000e-4
1.645793445830000e-4 1.701708044210000e-4 1.759514392190000e-4 1.819276160100000e-4
1.881059141800000e-4 1.944931324180000e-4 2.010962958930000e-4 2.079226636480000e-4
2.149797362310000e-4 2.222752635610000e-4 2.298172530400000e-4 2.376139779190000e-4
2.456739859120000e-4 2.540061080900000e-4 2.626194680400000e-4 2.715234912970001e-4
2.807279150780000e-4 2.902427983000000e-4 3.000785319030000e-4 3.102458494850000e-4
3.207558382510001e-4 3.316199502870000e-4 3.428500141800001e-4 3.544582469550000e-4
3.664572663890000e-4 3.788601036630000e-4 3.916802163860000e-4 4.049315019930000e-4
4.186283115320000e-4 4.327854638200001e-4 4.474182600189999e-4 4.625424986050001e-4
4.781744907589999e-4 4.943310761640001e-4 5.110296392460000e-4 5.282881258460000e-4
5.461250603240000e-4 5.645595631319999e-4 5.836113688240000e-4 6.033008445319999e-4
6.236490089140000e-4 6.446775515870000e-4 6.664088529810000e-4 6.888660047620000e-4
7.120728306580000e-4 7.360539077950000e-4 7.608345885640000e-4 7.864410229020001e-4
8.129001811189999e-4 8.402398771860000e-4 8.684887925099998e-4 8.976765001730001e-4
9.278334896859999e-4 9.589911921549998e-4 9.911820059560000e-4 1.024439322800000e-3
1.058797554290000e-3 1.094292158840000e-3 1.130959669020000e-3 1.168837719290000e-3
1.207965074080000e-3 1.248381656130000e-3 1.290128575280000e-3 1.333248157340000e-3
1.377783973330000e-3 1.423780868850000e-3 1.471284993520000e-3 1.520343830610000e-3
1.571006226650000e-3 1.623322420980000e-3 1.677344075210000e-3 1.733124302510000e-3
1.790717696580000e-3 1.850180360380000e-3 1.911569934200000e-3 1.974945623390000e-3
2.040368225230000e-3 2.107900155090000e-3 2.177605471540000e-3 2.249549900520000e-3
2.323800858020000e-3 2.400427471510000e-3 2.479500599660000e-3 2.561092850220000e-3
2.645278595800000e-3 2.732133987500000e-3 2.821736965770000e-3 2.914167268660000e-3
3.009506436760000e-3 3.107837814810000e-3 3.209246549510000e-3 3.313819583090000e-3
3.421645642460000e-3 3.532815223300000e-3 3.647420568849999e-3 3.765555642620000e-3
3.887316094950000e-3 4.012799222310001e-3 4.142103919430000e-3 4.275330622970000e-3
4.412581246499999e-3 4.553959105980000e-3 4.699568834940000e-3 4.849516288559999e-3
5.003908435950000e-3 5.162853239480000e-3 5.326459520479999e-3 5.494836810049999e-3
5.668095184239999e-3 5.846345081999999e-3 6.029697105160000e-3 6.218261799120000e-3
6.412149412340000e-3 6.611469634340001e-3 6.816331309520001e-3 7.026842126210000e-3
7.243108278610000e-3 7.465234100640000e-3 7.693321669030000e-3 7.927470374730000e-3
8.167776459790000e-3 8.414332518470001e-3 8.667226959530000e-3 8.926543428650000e-3
9.192360187519999e-3 9.464749447830002e-3 9.743776657799998e-3 1.002949973820000e-2
1.032196826540000e-2 1.062122259930000e-2 1.092729295230000e-2 1.124019839730000e-2
1.155994581180000e-2 1.188652875430000e-2 1.221992627130000e-2 1.256010163110000e-2
1.290700098100000e-2 1.326055192660000e-2 1.362066202750000e-2 1.398721720970000e-2
1.436008008950000e-2 1.473908820670000e-2 1.512405216550000e-2 1.551475367970000e-2
1.591094352020000e-2 1.631233936340000e-2 1.671862353890000e-2 1.712944067420000e-2
1.754439523750000e-2 1.796304897680000e-2 1.838491825650000e-2 1.880947129250000e-2
1.923612528730000e-2 1.966424346810000e-2 2.009313203070000e-2 2.052203699640000e-2
2.095014098350000e-2 2.137655990610000e-2 2.180033960450000e-2 2.222045242000000e-2
2.263579372660000e-2 2.304517843200000e-2 2.344733746790000e-2 2.384091428400000e-2
2.422446137320000e-2 2.459643684590000e-2 2.495520108800000e-2 2.529901352740000e-2
2.562602954950000e-2 2.593429759490000e-2 2.622175648780000e-2 2.648623303760000e-2
2.672543997150000e-2 2.693697424930000e-2 2.711831583070000e-2 2.726682695850000e-2
2.737975203730000e-2 2.745421818710000e-2 2.748723656040000e-2 2.747570452380000e-2
2.741640880140000e-2 2.730602969650000e-2 2.714114651010000e-2 2.691824428560000e-2
2.663372201570000e-2 2.628390245910000e-2 2.586504372179999e-2 2.537335276490000e-2
2.480500101840000e-2 2.415614227320000e-2 2.342293304970000e-2 2.260155563520000e-2
2.168824399580000e-2 2.067931277220000e-2 1.957118957210000e-2 1.836045077300000e-2
1.704386105110000e-2 1.561841684080000e-2 1.408139392840000e-2 1.243039936020000e-2
1.066342783190000e-2 8.778922687290001e-3 6.775841623920000e-3 4.653727138980001e-3
2.412781691870000e-3 5.394746543590000e-5 -2.421009492950000e-3 -5.009411109180000e-3
-7.707575610620000e-3 -1.051072305690000e-2 -1.341287902090000e-2 -1.640677763660000e-2
-1.948376556230000e-2 -2.263370877430000e-2 -2.584490454050000e-2 -2.910400139330000e-2
-3.239593045790000e-2 -3.570385205350000e-2 -3.900912207720000e-2 -4.229128327780000e-2
-4.552808706910000e-2 -4.869555201560000e-2 -5.176806540900001e-2 -5.471853442480000e-2
-5.751859299500000e-2 -6.013886971930001e-2 -6.254932052560001e-2 -6.471962734700000e-2
-6.661966040130000e-2 -6.821999667030000e-2 -6.949248049930000e-2 -7.041080399040000e-2
-7.095107486109999e-2 -7.109232838150000e-2 -7.081692874440000e-2 -7.011079570070001e-2
-6.896338810720000e-2 -6.736738270120001e-2 -6.531801298810000e-2 -6.281209382660000e-2
-5.984687335680000e-2 -5.641905704540000e-2 -5.252468647480000e-2 -4.816109624449999e-2
-4.333301577629999e-2 -3.806443087200000e-2 -3.239914825460000e-2 -2.638901767750000e-2
-2.009255290780000e-2 -1.357475336370000e-2 -6.906884472590001e-3 -1.661764603870000e-4
6.564572236010000e-3 1.319751256490000e-2 1.964042495530000e-2 2.579762596730000e-2
3.157119179260000e-2 3.686261539580000e-2 4.157502440360000e-2 4.561607324210000e-2
4.890154424359999e-2 5.135956514509999e-2 5.293513236230000e-2 5.359444256060000e-2
5.332836856480000e-2 5.215451216929999e-2 5.011749472620000e-2 4.728767666610000e-2
4.375884822820000e-2 3.964574149350000e-2 3.508190603890000e-2 3.021813536170000e-2
2.522081909990000e-2 2.026925468110000e-2 1.555043435870000e-2 1.125004394150000e-2
7.538427130350001e-3 4.551194910550000e-3 2.365189572930000e-3 9.731853218090000e-4
2.647358922620000e-4 2.808599234180000e-5 -1.897868303640000e-8 0.000000000000000e0
0.000000000000000e0 0.000000000000000e0 0.000000000000000e0 0.000000000000000e0
0.000000000000000e0 0.000000000000000e0 0.000000000000000e0 0.000000000000000e0
0.000000000000000e0 0.000000000000000e0 0.000000000000000e0 0.000000000000000e0
0.000000000000000e0 0.000000000000000e0 0.000000000000000e0 0.000000000000000e0
0.000000000000000e0 0.000000000000000e0 0.000000000000000e0 0.000000000000000e0
0.000000000000000e0 0.000000000000000e0 0.000000000000000e0 0.000000000000000e0
0.000000000000000e0 0.000000000000000e0 0.000000000000000e0 0.000000000000000e0
0.000000000000000e0 0.000000000000000e0 0.000000000000000e0 0.000000000000000e0
0.000000000000000e0 0.000000000000000e0 0.000000000000000e0 0.000000000000000e0
0.000000000000000e0 0.000000000000000e0 0.000000000000000e0 0.000000000000000e0
0.000000000000000e0 0.000000000000000e0 0.000000000000000e0 0.000000000000000e0
0.000000000000000e0 0.000000000000000e0 0.000000000000000e0 0.000000000000000e0
0.000000000000000e0 0.000000000000000e0 0.000000000000000e0 0.000000000000000e0
0.000000000000000e0 0.000000000000000e0 0.000000000000000e0 0.000000000000000e0
0.000000000000000e0 0.000000000000000e0 0.000000000000000e0 0.000000000000000e0
0.000000000000000e0 0.000000000000000e0 0.000000000000000e0 0.000000000000000e0
0.000000000000000e0 0.000000000000000e0 0.000000000000000e0 0.000000000000000e0
0.000000000000000e0 0.000000000000000e0 0.000000000000000e0 0.000000000000000e0
0.000000000000000e0 0.000000000000000e0 0.000000000000000e0 0.000000000000000e0
0.000000000000000e0 0.000000000000000e0 0.000000000000000e0 0.000000000000000e0
0.000000000000000e0 0.000000000000000e0 0.000000000000000e0 0.000000000000000e0
0.000000000000000e0 0.000000000000000e0 0.000000000000000e0 0.000000000000000e0
0.000000000000000e0 0.000000000000000e0 0.000000000000000e0 0.000000000000000e0
0.000000000000000e0 0.000000000000000e0 0.000000000000000e0 0.000000000000000e0
0.000000000000000e0 0.000000000000000e0 0.000000000000000e0 0.000000000000000e0
0.000000000000000e0 0.000000000000000e0 0.000000000000000e0 0.000000000000000e0
0.000000000000000e0 0.000000000000000e0 0.000000000000000e0 0.000000000000000e0
0.000000000000000e0 0.000000000000000e0 0.000000000000000e0 0.000000000000000e0
0.000000000000000e0 0.000000000000000e0 0.000000000000000e0 0.000000000000000e0
0.000000000000000e0 0.000000000000000e0 0.000000000000000e0 0.000000000000000e0
0.000000000000000e0 0.000000000000000e0 0.000000000000000e0 0.000000000000000e0
0.000000000000000e0 0.000000000000000e0 0.000000000000000e0 0.000000000000000e0
0.000000000000000e0 0.000000000000000e0 0.000000000000000e0 0.000000000000000e0
0.000000000000000e0 0.000000000000000e0 0.000000000000000e0 0.000000000000000e0
0.000000000000000e0 0.000000000000000e0 0.000000000000000e0 0.000000000000000e0
0.000000000000000e0 0.000000000000000e0 0.000000000000000e0 0.000000000000000e0
0.000000000000000e0 0.000000000000000e0 0.000000000000000e0 0.000000000000000e0
0.000000000000000e0 0.000000000000000e0 0.000000000000000e0 0.000000000000000e0
0.000000000000000e0 0.000000000000000e0 0.000000000000000e0 0.000000000000000e0
0.000000000000000e0 0.000000000000000e0 0.000000000000000e0 0.000000000000000e0
0.000000000000000e0 0.000000000000000e0 0.000000000000000e0 0.000000000000000e0
0.000000000000000e0 0.000000000000000e0 0.000000000000000e0 0.000000000000000e0
0.000000000000000e0 0.000000000000000e0 0.000000000000000e0 0.000000000000000e0
0.000000000000000e0 0.000000000000000e0 0.000000000000000e0 0.000000000000000e0
0.000000000000000e0 0.000000000000000e0 0.000000000000000e0 0.000000000000000e0
0.000000000000000e0 0.000000000000000e0 0.000000000000000e0 0.000000000000000e0
0.000000000000000e0 0.000000000000000e0 0.000000000000000e0 0.000000000000000e0
0.000000000000000e0 0.000000000000000e0 0.000000000000000e0 0.000000000000000e0
0.000000000000000e0 0.000000000000000e0 0.000000000000000e0 0.000000000000000e0
0.000000000000000e0 0.000000000000000e0 0.000000000000000e0 0.000000000000000e0
0.000000000000000e0 0.000000000000000e0 0.000000000000000e0 0.000000000000000e0
0.000000000000000e0 0.000000000000000e0 0.000000000000000e0 0.000000000000000e0
0.000000000000000e0 0.000000000000000e0 0.000000000000000e0 0.000000000000000e0
0.000000000000000e0 0.000000000000000e0 0.000000000000000e0 0.000000000000000e0
0.000000000000000e0 0.000000000000000e0 0.000000000000000e0 0.000000000000000e0
0.000000000000000e0 0.000000000000000e0 0.000000000000000e0 0.000000000000000e0
0.000000000000000e0 0.000000000000000e0 0.000000000000000e0 0.000000000000000e0
0.000000000000000e0 0.000000000000000e0 0.000000000000000e0 0.000000000000000e0
0.000000000000000e0 0.000000000000000e0 0.000000000000000e0 0.000000000000000e0
0.000000000000000e0 0.000000000000000e0 0.000000000000000e0 0.000000000000000e0
0.000000000000000e0 0.000000000000000e0 0.000000000000000e0 0.000000000000000e0
0.000000000000000e0 0.000000000000000e0 0.000000000000000e0 0.000000000000000e0
0.000000000000000e0 0.000000000000000e0 0.000000000000000e0 0.000000000000000e0
0.000000000000000e0 0.000000000000000e0 0.000000000000000e0 0.000000000000000e0
0.000000000000000e0 0.000000000000000e0 0.000000000000000e0 0.000000000000000e0
0.000000000000000e0 0.000000000000000e0 0.000000000000000e0 0.000000000000000e0
0.000000000000000e0 0.000000000000000e0 0.000000000000000e0 0.000000000000000e0
0.000000000000000e0 0.000000000000000e0 0.000000000000000e0 0.000000000000000e0
0.000000000000000e0 0.000000000000000e0 0.000000000000000e0 0.000000000000000e0
0.000000000000000e0 0.000000000000000e0 0.000000000000000e0 0.000000000000000e0
0.000000000000000e0 0.000000000000000e0 0.000000000000000e0 0.000000000000000e0
0.000000000000000e0 0.000000000000000e0 0.000000000000000e0
</PP_QIJ.2.2>
<PP_QIJ.2.3 first_index="2" second_index="3" composite_index="5">
0.000000000000000e0 1.165525984640000e-17 9.561247223049996e-17 3.309185274360000e-16
8.044521310909998e-16 1.611474032850000e-15 2.856210851620001e-15 4.652474408259999e-15
7.124318581039999e-15 1.040673580940000e-14 1.464639548690000e-14 2.000242660750000e-14
2.664724715640001e-14 3.476744287269999e-14 4.456469815529998e-14 5.625678203029999e-14
7.007859225960001e-14 8.628326083629998e-14 1.051433242850000e-13 1.269519623769999e-13
1.520243090520000e-13 1.806988395610000e-13 2.133388380440000e-13 2.503339499890000e-13
2.921018242670001e-13 3.390898496730000e-13 3.917769911769998e-13 4.506757313720001e-13
5.163341228940000e-13 5.893379578979998e-13 6.703130609949999e-13 7.599277124229999e-13
8.588952085369998e-13 9.679765671419998e-13 1.087983385550000e-12 1.219780859640000e-12
1.364290972810000e-12 1.522495863810000e-12 1.695441383420000e-12 1.884240850040000e-12
2.090079015060000e-12 2.314216249270000e-12 2.557992962310001e-12 2.822834267780001e-12
3.110254907170000e-12 3.421864446620000e-12 3.759372761169999e-12 4.124595822020000e-12
4.519461802990000e-12 4.946017523390001e-12 5.406435245400000e-12 5.903019844770000e-12
6.438216375129999e-12 7.014618046639999e-12 7.634974641509999e-12 8.302201389350003e-12
9.019388327280000e-12 9.789810170370004e-12 1.061693671980000e-11 1.150444383720000e-11
1.245622501590000e-11 1.347640357980000e-11 1.456934554420000e-11 1.573967317340000e-11
1.699227927229999e-11 1.833234225000000e-11 1.976534199820001e-11 2.129707662570000e-11
2.293368009530000e-11 2.468164081110000e-11 2.654782120580000e-11 2.853947838140001e-11
3.066428585870000e-11 3.293035649419998e-11 3.534626662700000e-11 3.792108151830001e-11
4.066438215469999e-11 4.358629348440001e-11 4.669751416399999e-11 5.000934789390000e-11
5.353373642729999e-11 5.728329433949999e-11 6.127134565119999e-11 6.551196240239999e-11
7.002000528080000e-11 7.481116641020000e-11 7.990201441550000e-11 8.531004188110002e-11
9.105371532910002e-11 9.715252785049998e-11 1.036270545270000e-10 1.104990107910000e-10
1.177913138750000e-10 1.255281475190000e-10 1.337350300920000e-10 1.424388863310000e-10
1.516681228540000e-10 1.614527076770000e-10 1.718242539210000e-10 1.828161079370000e-10
1.944634420830000e-10 2.068033523870000e-10 2.198749613590000e-10 2.337195262200000e-10
2.483805528200000e-10 2.639039155600000e-10 2.803379836170000e-10 2.977337538020000e-10
3.161449904069999e-10 3.356283723869999e-10 3.562436482779999e-10 3.780537992450000e-10
4.011252106800000e-10 4.255278527980000e-10 4.513354707059999e-10 4.786257844259999e-10
5.074806993950000e-10 5.379865279919999e-10 5.702342226530001e-10 6.043196211939998e-10
6.403437049520000e-10 6.784128704320000e-10 7.186392151550001e-10 7.611408384319997e-10
8.060421578630002e-10 8.534742423470000e-10 9.035751624909999e-10 9.564903592930001e-10
1.012373032070000e-9 1.071384546610000e-9 1.133694864600000e-9 1.199482995480000e-9
1.268937471740000e-9 1.342256849120000e-9 1.419650232750000e-9 1.501337830720000e-9
1.587551536470000e-9 1.678535541510000e-9 1.774546979940000e-9 1.875856606600000e-9
1.982749510390000e-9 2.095525864760000e-9 2.214501717090001e-9 2.340009819260000e-9
2.472400501190000e-9 2.612042589860000e-9 2.759324376070000e-9 2.914654631270000e-9
3.078463677329999e-9 3.251204511700000e-9 3.433353991030000e-9 3.625414076100000e-9
3.827913141470001e-9 4.041407352859999e-9 4.266482116060001e-9 4.503753600920000e-9
4.753870344299999e-9 5.017514936069999e-9 5.295405792530000e-9 5.588299021560000e-9
5.896990384490000e-9 6.222317359470000e-9 6.565161311729999e-9 6.926449776089999e-9
7.307158857680001e-9 7.708315756850002e-9 8.131001424710000e-9 8.576353356060002e-9
9.045568526769999e-9 9.539906483030000e-9 1.006069259040000e-8 1.060932145070000e-8
1.118726049590000e-8 1.179605376700000e-8 1.243732588920000e-8 1.311278625150000e-8
1.382423340300000e-8 1.457355967570000e-8 1.536275604680000e-8 1.619391725100000e-8
1.706924715810000e-8 1.799106442710000e-8 1.896180845300000e-8 1.998404562010000e-8
2.106047587830000e-8 2.219393965860000e-8 2.338742514590000e-8 2.464407592600000e-8
2.596719902850000e-8 2.736027338370000e-8 2.882695871550000e-8 3.037110489410000e-8
3.199676176960000e-8 3.370818951340000e-8 3.550986949329999e-8 3.740651570769999e-8
3.940308681109999e-8 4.150479875770000e-8 4.371713809809999e-8 4.604587596029999e-8
4.849708275119998e-8 5.107714361650000e-8 5.379277469570000e-8 5.665104021570001e-8
5.965937046420001e-8 6.282558068929999e-8 6.615789097250000e-8 6.966494712450001e-8
7.335584265790001e-8 7.724014189080000e-8 8.132790424020000e-8 8.562970976590000e-8
9.015668602920000e-8 9.492053633500001e-8 9.993356942679998e-8 1.052087307100000e-7
1.107596350830000e-7 1.166006014560000e-7 1.227466890490000e-7 1.292137355550000e-7
1.360183972670000e-7 1.431781912710000e-7 1.507115398060000e-7 1.586378169130001e-7
1.669773974730000e-7 1.757517087800000e-7 1.849832847530000e-7 1.946958229460000e-7
2.049142444870000e-7 2.156647570970000e-7 2.269749213500000e-7 2.388737203430000e-7
2.513916329449999e-7 2.645607108090000e-7 2.784146593510000e-7 2.929889228850000e-7
3.083207741330001e-7 3.244494083429999e-7 3.414160422360000e-7 3.592640180450001e-7
3.780389128940000e-7 3.977886538030000e-7 4.185636386020001e-7 4.404168630500000e-7
4.634040544999999e-7 4.875838124130000e-7 5.130177561110000e-7 5.397706800980000e-7
5.679107173800001e-7 5.975095111580000e-7 6.286423953540000e-7 6.613885843909999e-7
6.958313727409999e-7 7.320583447019999e-7 7.701615949590000e-7 8.102379604639999e-7
8.523892642279998e-7 8.967225716259998e-7 9.433504598639999e-7 9.923913012779998e-7
1.043969561180000e-6 1.098216110970000e-6 1.155268557400000e-6 1.215271588610000e-6
1.278377338030000e-6 1.344745766920000e-6 1.414545066550000e-6 1.487952081010000e-6
1.565152751720000e-6 1.646342584740000e-6 1.731727142100000e-6 1.821522558260000e-6
1.915956083160000e-6 2.015266653049999e-6 2.119705490640000e-6 2.229536736040000e-6
2.345038110050000e-6 2.466501611440000e-6 2.594234250080001e-6 2.728558817570001e-6
2.869814697420000e-6 3.018358716810000e-6 3.174566042000000e-6 3.338831119580000e-6
3.511568666130001e-6 3.693214708440000e-6 3.884227677180000e-6 4.085089556569999e-6
4.296307092979999e-6 4.518413065470000e-6 4.751967621480000e-6 4.997559680880000e-6
5.255808412069999e-6 5.527364783570000e-6 5.812913195259998e-6 6.113173193040000e-6
6.428901271390000e-6 6.760892768240000e-6 7.109983856890000e-6 7.477053639920000e-6
7.863026350280000e-6 8.268873665200001e-6 8.695617138359999e-6 9.144330756770000e-6
9.616143628380001e-6 1.011224280730000e-5 1.063387626340000e-5 1.118235600450000e-5
1.175906135720000e-5 1.236544241670000e-5 1.300302367240000e-5 1.367340781870000e-5
1.437827976170000e-5 1.511941082960000e-5 1.589866319920000e-5 1.671799454810000e-5
1.757946294500000e-5 1.848523198970000e-5 1.943757621600000e-5 2.043888677050000e-5
2.149167738110000e-5 2.259859063100000e-5 2.376240455220000e-5 2.498603955660000e-5
2.627256572000001e-5 2.762521043870000e-5 2.904736647539999e-5 3.054260041740000e-5
3.211466156449999e-5 3.376749127129999e-5 3.550523276490000e-5 3.733224146400000e-5
3.925309582269999e-5 4.127260872750000e-5 4.339583947480000e-5 4.562810635790000e-5
4.797499989499999e-5 5.044239673049999e-5 5.303647424309999e-5 5.576372589780000e-5
5.863097737750000e-5 6.164540353540000e-5 6.481454620839999e-5 6.814633293570001e-5
7.164909662760000e-5 7.533159623320001e-5 7.920303845639999e-5 8.327310057390001e-5
8.755195440990001e-5 9.205029152589999e-5 9.677934968690000e-5 1.017509406680000e-4
1.069774794670000e-4 1.124720149990000e-4 1.182482623370000e-4 1.243206365890000e-4
1.307042884790000e-4 1.374151417320000e-4 1.444699323420000e-4 1.518862498160000e-4
1.596825805060000e-4 1.678783531180000e-4 1.764939865100000e-4 1.855509398990000e-4
1.950717655930000e-4 2.050801643620001e-4 2.156010436010000e-4 2.266605784050000e-4
2.382862757000000e-4 2.505070415940000e-4 2.633532520950000e-4 2.768568273570000e-4
2.910513096459999e-4 3.059719451870000e-4 3.216557700940000e-4 3.381417005760001e-4
3.554706276360001e-4 3.736855164690001e-4 3.928315107900000e-4 4.129560423430000e-4
4.341089458240000e-4 4.563425794850001e-4 4.797119516960000e-4 5.042748537440000e-4
5.300919991720000e-4 5.572271699680000e-4 5.857473699180000e-4 6.157229854940000e-4
6.472279545879999e-4 6.803399434990000e-4 7.151405325439999e-4 7.517154106900001e-4
7.901545796390000e-4 8.305525677999999e-4 8.730086545980001e-4 9.176271056069998e-4
9.645174189830000e-4 1.013794583740000e-3 1.065579350360000e-3 1.119998514380000e-3
1.177185213370000e-3 1.237279238120000e-3 1.300427358510000e-3 1.366783664680000e-3
1.436509924350000e-3 1.509775956790000e-3 1.586760024240000e-3 1.667649241600000e-3
1.752640004990000e-3 1.841938440110000e-3 1.935760871160000e-3 2.034334311190000e-3
2.137896974690000e-3 2.246698813420000e-3 2.361002076250000e-3 2.481081894060000e-3
2.607226890670000e-3 2.739739820630000e-3 2.878938235090000e-3 3.025155176560000e-3
3.178739903740000e-3 3.340058647400000e-3 3.509495398359999e-3 3.687452728700000e-3
3.874352647150000e-3 4.070637489900000e-3 4.276770847649999e-3 4.493238530280000e-3
4.720549569780000e-3 4.959237262810000e-3 5.209860253660000e-3 5.473003658570001e-3
5.749280232340000e-3 6.039331578090001e-3 6.343829400740000e-3 6.663476805150001e-3
6.999009639200001e-3 7.351197882400000e-3 7.720847080360000e-3 8.108799825089999e-3
8.515937281280001e-3 8.943180758199999e-3 9.391493326739999e-3 9.861881480850000e-3
1.035539684240000e-2 1.087313790790000e-2 1.141625183560000e-2 1.198593627070000e-2
1.258344120530000e-2 1.321007087190000e-2 1.386718566410000e-2 1.455620408240000e-2
1.527860469860000e-2 1.603592813410000e-2 1.682977904410000e-2 1.766182810140000e-2
1.853381397080000e-2 1.944754526380000e-2 2.040490246340000e-2 2.140783980670000e-2
2.245838711060000e-2 2.355865152790000e-2 2.471081921300000e-2 2.591715688260000e-2
2.718001324750000e-2 2.850182029420000e-2 2.988509439160000e-2 3.133243719300000e-2
3.284653630680000e-2 3.443016569900000e-2 3.608618579459999e-2 3.781754323810000e-2
3.962727026910000e-2 4.151848366979999e-2 4.349438323319999e-2 4.555824969890000e-2
4.771344209950001e-2 4.996339445670000e-2 5.231161176050000e-2 5.476166516330000e-2
5.731718631270000e-2 5.998186074750000e-2 6.275942027179999e-2 6.565363422220000e-2
6.866829953790000e-2 7.180722953800000e-2 7.507424131190001e-2 7.847314162070001e-2
8.200771120920001e-2 8.568168742650000e-2 8.949874505240000e-2 9.346247522820001e-2
9.757636239410001e-2 1.018437591380000e-1 1.062678588720000e-1 1.108516662500000e-1
1.155979652690000e-1 1.205092849930000e-1 1.255878628690000e-1 1.308356056180000e-1
1.362540477110000e-1 1.418443074810000e-1 1.476070409310000e-1 1.535423933650000e-1
1.596499490020000e-1 1.659286787740000e-1 1.723768865880000e-1 1.789921543720000e-1
1.857712863040000e-1 1.927102526910000e-1 1.998041340410000e-1 2.070470659520000e-1
2.144321855170000e-1 2.219515800410000e-1 2.295962389050000e-1 2.373560095430000e-1
2.452195584930000e-1 2.531743385860000e-1 2.612065633240000e-1 2.693011895300000e-1
2.774419092930000e-1 2.856111521840000e-1 2.937900985680000e-1 3.019587046790000e-1
3.100957398550000e-1 3.181788360050000e-1 3.261845489600000e-1 3.340884308470000e-1
3.418651120020000e-1 3.494883902410000e-1 3.569313244610000e-1 3.641663286950000e-1
3.711652617350000e-1 3.778995064780000e-1 3.843400321990000e-1 3.904574320550000e-1
3.962219274870000e-1 4.016033308220000e-1 4.065709574930000e-1 4.110934801020000e-1
4.151387182150000e-1 4.186733606430000e-1 4.216626212470000e-1 4.240698353620000e-1
4.258560120760000e-1 4.269793681010000e-1 4.273948819610000e-1 4.270539229490000e-1
4.259040272980000e-1 4.238889140070000e-1 4.209488535660000e-1 4.170215226320000e-1
4.120434940170000e-1 4.059525199919999e-1 3.986907627430000e-1 3.902091015850000e-1
3.804725931470000e-1 3.694670677960000e-1 3.572066997320000e-1 3.437421783660000e-1
3.291688227770000e-1 3.136336152360000e-1 2.973396929460000e-1 2.805463609140000e-1
2.635622503320000e-1 2.467289900140000e-1 2.303929444640000e-1 2.148636369360000e-1
2.003601289340000e-1 1.869519968190000e-1 1.745113714360000e-1 1.627094568700000e-1
1.511190281510000e-1 1.394903393180000e-1 1.278269270720000e-1 1.161650633440000e-1
1.045440246350000e-1 9.300576999830000e-2 8.159477457980000e-2 7.035785337510001e-2
5.934400780170001e-2 4.860432631590000e-2 3.819197850779999e-2 2.816233707310000e-2
1.857324192270000e-2 9.485392725080001e-3 9.627804680050000e-4 -6.926997294930000e-3
-1.411281830450000e-2 -2.052084055090000e-2 -2.607641013660000e-2 -3.070730054200000e-2
-3.434833173120000e-2 -3.694703402540000e-2 -3.846979830120000e-2 -3.890775881230000e-2
-3.828185230280000e-2 -3.664672338390000e-2 -3.409352969970000e-2 -3.075171662700000e-2
-2.678966707510000e-2 -2.241352764510000e-2 -1.786288106200000e-2 -1.340124387640000e-2
-9.299034449510000e-3 -5.806851563660000e-3 -3.118253278270000e-3 -1.324621568820000e-3
-3.717090391550000e-4 -4.070238820660000e-5 -1.287299023760000e-7 0.000000000000000e0
0.000000000000000e0 0.000000000000000e0 0.000000000000000e0 0.000000000000000e0
0.000000000000000e0 0.000000000000000e0 0.000000000000000e0 0.000000000000000e0
0.000000000000000e0 0.000000000000000e0 0.000000000000000e0 0.000000000000000e0
0.000000000000000e0 0.000000000000000e0 0.000000000000000e0 0.000000000000000e0
0.000000000000000e0 0.000000000000000e0 0.000000000000000e0 0.000000000000000e0
0.000000000000000e0 0.000000000000000e0 0.000000000000000e0 0.000000000000000e0
0.000000000000000e0 0.000000000000000e0 0.000000000000000e0 0.000000000000000e0
0.000000000000000e0 0.000000000000000e0 0.000000000000000e0 0.000000000000000e0
0.000000000000000e0 0.000000000000000e0 0.000000000000000e0 0.000000000000000e0
0.000000000000000e0 0.000000000000000e0 0.000000000000000e0 0.000000000000000e0
0.000000000000000e0 0.000000000000000e0 0.000000000000000e0 0.000000000000000e0
0.000000000000000e0 0.000000000000000e0 0.000000000000000e0 0.000000000000000e0
0.000000000000000e0 0.000000000000000e0 0.000000000000000e0 0.000000000000000e0
0.000000000000000e0 0.000000000000000e0 0.000000000000000e0 0.000000000000000e0
0.000000000000000e0 0.000000000000000e0 0.000000000000000e0 0.000000000000000e0
0.000000000000000e0 0.000000000000000e0 0.000000000000000e0 0.000000000000000e0
0.000000000000000e0 0.000000000000000e0 0.000000000000000e0 0.000000000000000e0
0.000000000000000e0 0.000000000000000e0 0.000000000000000e0 0.000000000000000e0
0.000000000000000e0 0.000000000000000e0 0.000000000000000e0 0.000000000000000e0
0.000000000000000e0 0.000000000000000e0 0.000000000000000e0 0.000000000000000e0
0.000000000000000e0 0.000000000000000e0 0.000000000000000e0 0.000000000000000e0
0.000000000000000e0 0.000000000000000e0 0.000000000000000e0 0.000000000000000e0
0.000000000000000e0 0.000000000000000e0 0.000000000000000e0 0.000000000000000e0
0.000000000000000e0 0.000000000000000e0 0.000000000000000e0 0.000000000000000e0
0.000000000000000e0 0.000000000000000e0 0.000000000000000e0 0.000000000000000e0
0.000000000000000e0 0.000000000000000e0 0.000000000000000e0 0.000000000000000e0
0.000000000000000e0 0.000000000000000e0 0.000000000000000e0 0.000000000000000e0
0.000000000000000e0 0.000000000000000e0 0.000000000000000e0 0.000000000000000e0
0.000000000000000e0 0.000000000000000e0 0.000000000000000e0 0.000000000000000e0
0.000000000000000e0 0.000000000000000e0 0.000000000000000e0 0.000000000000000e0
0.000000000000000e0 0.000000000000000e0 0.000000000000000e0 0.000000000000000e0
0.000000000000000e0 0.000000000000000e0 0.000000000000000e0 0.000000000000000e0
0.000000000000000e0 0.000000000000000e0 0.000000000000000e0 0.000000000000000e0
0.000000000000000e0 0.000000000000000e0 0.000000000000000e0 0.000000000000000e0
0.000000000000000e0 0.000000000000000e0 0.000000000000000e0 0.000000000000000e0
0.000000000000000e0 0.000000000000000e0 0.000000000000000e0 0.000000000000000e0
0.000000000000000e0 0.000000000000000e0 0.000000000000000e0 0.000000000000000e0
0.000000000000000e0 0.000000000000000e0 0.000000000000000e0 0.000000000000000e0
0.000000000000000e0 0.000000000000000e0 0.000000000000000e0 0.000000000000000e0
0.000000000000000e0 0.000000000000000e0 0.000000000000000e0 0.000000000000000e0
0.000000000000000e0 0.000000000000000e0 0.000000000000000e0 0.000000000000000e0
0.000000000000000e0 0.000000000000000e0 0.000000000000000e0 0.000000000000000e0
0.000000000000000e0 0.000000000000000e0 0.000000000000000e0 0.000000000000000e0
0.000000000000000e0 0.000000000000000e0 0.000000000000000e0 0.000000000000000e0
0.000000000000000e0 0.000000000000000e0 0.000000000000000e0 0.000000000000000e0
0.000000000000000e0 0.000000000000000e0 0.000000000000000e0 0.000000000000000e0
0.000000000000000e0 0.000000000000000e0 0.000000000000000e0 0.000000000000000e0
0.000000000000000e0 0.000000000000000e0 0.000000000000000e0 0.000000000000000e0
0.000000000000000e0 0.000000000000000e0 0.000000000000000e0 0.000000000000000e0
0.000000000000000e0 0.000000000000000e0 0.000000000000000e0 0.000000000000000e0
0.000000000000000e0 0.000000000000000e0 0.000000000000000e0 0.000000000000000e0
0.000000000000000e0 0.000000000000000e0 0.000000000000000e0 0.000000000000000e0
0.000000000000000e0 0.000000000000000e0 0.000000000000000e0 0.000000000000000e0
0.000000000000000e0 0.000000000000000e0 0.000000000000000e0 0.000000000000000e0
0.000000000000000e0 0.000000000000000e0 0.000000000000000e0 0.000000000000000e0
0.000000000000000e0 0.000000000000000e0 0.000000000000000e0 0.000000000000000e0
0.000000000000000e0 0.000000000000000e0 0.000000000000000e0 0.000000000000000e0
0.000000000000000e0 0.000000000000000e0 0.000000000000000e0 0.000000000000000e0
0.000000000000000e0 0.000000000000000e0 0.000000000000000e0 0.000000000000000e0
0.000000000000000e0 0.000000000000000e0 0.000000000000000e0 0.000000000000000e0
0.000000000000000e0 0.000000000000000e0 0.000000000000000e0 0.000000000000000e0
0.000000000000000e0 0.000000000000000e0 0.000000000000000e0 0.000000000000000e0
0.000000000000000e0 0.000000000000000e0 0.000000000000000e0 0.000000000000000e0
0.000000000000000e0 0.000000000000000e0 0.000000000000000e0 0.000000000000000e0
0.000000000000000e0 0.000000000000000e0 0.000000000000000e0 0.000000000000000e0
0.000000000000000e0 0.000000000000000e0 0.000000000000000e0 0.000000000000000e0
0.000000000000000e0 0.000000000000000e0 0.000000000000000e0 0.000000000000000e0
0.000000000000000e0 0.000000000000000e0 0.000000000000000e0 0.000000000000000e0
0.000000000000000e0 0.000000000000000e0 0.000000000000000e0 0.000000000000000e0
0.000000000000000e0 0.000000000000000e0 0.000000000000000e0 0.000000000000000e0
0.000000000000000e0 0.000000000000000e0 0.000000000000000e0 0.000000000000000e0
0.000000000000000e0 0.000000000000000e0 0.000000000000000e0
</PP_QIJ.2.3>
<PP_QIJ.2.4 first_index="2" second_index="4" composite_index="8">
0.000000000000000e0 1.229659021890000e-17 1.008735460490000e-16 3.491273108730000e-16
8.487170888520001e-16 1.700145349930000e-15 3.013373780009999e-15 4.908476692440001e-15
7.516334026910000e-15 1.097936617830000e-14 1.545231301970000e-14 2.110305961379999e-14
2.811351124079999e-14 3.668052051530000e-14 4.701686951459999e-14 5.935230999960001e-14
7.393466497550001e-14 9.103099501610000e-14 1.109288329610000e-13 1.339374907900000e-13
1.603894426790000e-13 1.906417884700000e-13 2.250778020020000e-13 2.641085689959999e-13
3.081747194399998e-13 3.577482596830000e-13 4.133345097279999e-13 4.754741515079999e-13
5.447453942390000e-13 6.217662632690001e-13 7.071970191919997e-13 8.017427143399999e-13
9.061558941800001e-13 1.021239451500000e-12 1.147849641710000e-12 1.286899268090000e-12
1.439361046120000e-12 1.606271156710000e-12 1.788732998530000e-12 1.987921150300000e-12
2.205085554310000e-12 2.441555933180000e-12 2.698746452560000e-12 2.978160642869999e-12
3.281396594190001e-12 3.610152438940001e-12 3.966232138000000e-12 4.351551586280000e-12
4.768145055280001e-12 5.218171990460000e-12 5.703924182620000e-12 6.227833333180000e-12
6.792479034719999e-12 7.400597188670000e-12 8.055088883840002e-12 8.759029760219999e-12
9.515679884030002e-12 1.032849416140000e-11 1.120113331890001e-11 1.213747548260000e-11
1.314162838480000e-11 1.421794223500000e-11 1.537102328830000e-11 1.660574814890000e-11
1.792727884760000e-11 1.934107873540000e-11 2.085292923450000e-11 2.246894749420000e-11
2.419560499820000e-11 2.603974717440000e-11 2.800861406030000e-11 3.010986207929999e-11
3.235158698690000e-11 3.474234804890001e-11 3.729119351659999e-11 4.000768746630000e-11
4.290193807720000e-11 4.598462742190001e-11 4.926704284929999e-11 5.276111004470002e-11
5.647942785479998e-11 6.043530497030001e-11 6.464279856459999e-11 6.911675498969999e-11
7.387285264049998e-11 7.892764709799999e-11 8.429861867310001e-11 9.000422247690000e-11
9.606394114910001e-11 1.024983403850000e-10 1.093291274070000e-10 1.165792125340000e-10
1.242727740170000e-10 1.324353262990000e-10 1.410937918960000e-10 1.502765770700000e-10
1.600136515090000e-10 1.703366322120000e-10 1.812788718060000e-10 1.928755515160001e-10
2.051637790500001e-10 2.181826916369999e-10 2.319735644940000e-10 2.465799250060000e-10
2.620476729230000e-10 2.784252068720000e-10 2.957635575280000e-10 3.141165277879999e-10
3.335408403050000e-10 3.540962927739999e-10 3.758459213759999e-10 3.988561727910000e-10
4.231970852420000e-10 4.489424790299999e-10 4.761701570570001e-10 5.049621158550000e-10
5.354047676750001e-10 5.675891741950000e-10 6.016112924700000e-10 6.375722337430001e-10
6.755785357999999e-10 7.157424495610001e-10 7.581822406529999e-10 8.030225067370001e-10
8.503945114210000e-10 9.004365355919999e-10 9.532942471090001e-10 1.009121089770000e-9
1.068078692580000e-9 1.130337300370000e-9 1.196076226860000e-9 1.265484331340000e-9
1.338760520170000e-9 1.416114274450000e-9 1.497766205160000e-9 1.583948637160000e-9
1.674906223620000e-9 1.770896592450000e-9 1.872191026340000e-9 1.979075178130000e-9
2.091849823470000e-9 2.210831652530000e-9 2.336354102860000e-9 2.468768235640000e-9
2.608443657290000e-9 2.755769489060000e-9 2.911155386940001e-9 3.075032614540001e-9
3.247855171600000e-9 3.430100981130001e-9 3.622273138130000e-9 3.824901223040001e-9
4.038542683410001e-9 4.263784287100000e-9 4.501243650879999e-9 4.751570848310001e-9
5.015450100840000e-9 5.293601556600001e-9 5.586783161380001e-9 5.895792626410000e-9
6.221469498179999e-9 6.564697335320001e-9 6.926405998250002e-9 7.307574057299998e-9
7.709231325490001e-9 8.132461522409999e-9 8.578405075779999e-9 9.048262068110002e-9
9.543295335640002e-9 1.006483372760000e-8 1.061427553390000e-8 1.119309209040000e-8
1.180283156960000e-8 1.244512296870000e-8 1.312168030240000e-8 1.383430701310000e-8
1.458490060860000e-8 1.537545753950000e-8 1.620807832900000e-8 1.708497296630000e-8
1.800846658010000e-8 1.898100540380000e-8 2.000516304960001e-8 2.108364710540000e-8
2.221930607330000e-8 2.341513666520000e-8 2.467429147570000e-8 2.600008705040000e-8
2.739601237020000e-8 2.886573777430001e-8 3.041312434190000e-8 3.204223375919999e-8
3.375733869439999e-8 3.556293370780000e-8 3.746374672450000e-8 3.946475109879999e-8
4.157117829980000e-8 4.378853125159999e-8 4.612259836060000e-8 4.857946826569998e-8
5.116554534889999e-8 5.388756604470000e-8 5.675261599000000e-8 5.976814805700000e-8
6.294200131600002e-8 6.628242097390002e-8 6.979807933990001e-8 7.349809787169999e-8
7.739207035500001e-8 8.149008727910001e-8 8.580276146549998e-8 9.034125501629998e-8
9.511730765119998e-8 1.001432665010000e-7 1.054321174370000e-7 1.109975180090000e-7
1.168538320850000e-7 1.230161662660000e-7 1.295004081790000e-7 1.363232667400000e-7
1.435023144870000e-7 1.510560320920000e-7 1.590038551610000e-7 1.673662234470000e-7
1.761646325850000e-7 1.854216884950000e-7 1.951611645820000e-7 2.054080618760000e-7
2.161886722630000e-7 2.275306449720000e-7 2.394630564770000e-7 2.520164839920000e-7
2.652230827490000e-7 2.791166672430000e-7 2.937327966600000e-7 3.091088646880000e-7
3.252841939510001e-7 3.423001352920000e-7 3.602001721639999e-7 3.790300303790000e-7
3.988377934970000e-7 4.196740241530001e-7 4.415918916090000e-7 4.646473058590000e-7
4.888990586300001e-7 5.144089716250001e-7 5.412420523729999e-7 5.694666580990000e-7
5.991546679970002e-7 6.303816643609999e-7 6.632271230130002e-7 6.977746135149999e-7
7.341120096560001e-7 7.723317107580002e-7 8.125308743320002e-7 8.548116606949998e-7
8.992814901290000e-7 9.460533132629999e-7 9.952458953109998e-7 1.046984114920000e-6
1.101399278370000e-6 1.158629449850000e-6 1.218819798730000e-6 1.282122964660000e-6
1.348699441390000e-6 1.418717980280000e-6 1.492356014490000e-6 1.569800105030000e-6
1.651246409600000e-6 1.736901175520000e-6 1.826981257930000e-6 1.921714664630000e-6
2.021341128790000e-6 2.126112711110000e-6 2.236294432770000e-6 2.352164940960000e-6
2.474017208439999e-6 2.602159269040000e-6 2.736914990820000e-6 2.878624888900000e-6
3.027646979980000e-6 3.184357680670000e-6 3.349152751770000e-6 3.522448291100000e-6
3.704681777160000e-6 3.896313166190000e-6 4.097826045610001e-6 4.309728846440001e-6
4.532556117910000e-6 4.766869867340001e-6 5.013260968659999e-6 5.272350643150000e-6
5.544792015930000e-6 5.831271752230000e-6 6.132511777420000e-6 6.449271085200001e-6
6.782347638260000e-6 7.132580366350001e-6 7.500851266560000e-6 7.888087611180000e-6
8.295264268500000e-6 8.723406142419998e-6 9.173590736910000e-6 9.646950851629999e-6
1.014467741550000e-5 1.066802246520000e-5 1.121830227610000e-5 1.179690065300000e-5
1.240527238970000e-5 1.304494690480000e-5 1.371753206380000e-5 1.442471819650000e-5
1.516828231959999e-5 1.595009257500000e-5 1.677211289510000e-5 1.763640790630000e-5
1.854514808270000e-5 1.950061516340000e-5 2.050520784600000e-5 2.156144777110000e-5
2.267198581180000e-5 2.383960868460000e-5 2.506724589700000e-5 2.635797705000000e-5
2.771503951300000e-5 2.914183648930000e-5 3.064194549380000e-5 3.221912726160000e-5
3.387733511140000e-5 3.562072478550000e-5 3.745366479050000e-5 3.938074726530000e-5
4.140679940120000e-5 4.353689544420000e-5 4.577636930690000e-5 4.813082782199999e-5
5.060616467000000e-5 5.320857501390001e-5 5.594457087800000e-5 5.882099730760000e-5
6.184504934890000e-5 6.502428989050001e-5 6.836666841070000e-5 7.188054067420000e-5
7.557468942860001e-5 7.945834614860001e-5 8.354121388139999e-5 8.783349124930000e-5
9.234589766610000e-5 9.708969982910000e-5 1.020767395500000e-4 1.073194629930000e-4
1.128309513880000e-4 1.186249532910000e-4 1.247159184810000e-4 1.311190335540000e-4
1.378502593200000e-4 1.449263700730000e-4 1.523649948480000e-4 1.601846607410000e-4
1.684048384150000e-4 1.770459898830000e-4 1.861296186960000e-4 1.956783226370000e-4
2.057158490640000e-4 2.162671530150000e-4 2.273584582230000e-4 2.390173211780000e-4
2.512726983809999e-4 2.641550169600000e-4 2.776962487980001e-4 2.919299883460000e-4
3.068915343090000e-4 3.226179753870000e-4 3.391482802590000e-4 3.565233920380000e-4
3.747863273790000e-4 3.939822805010000e-4 4.141587323250000e-4 4.353655649979999e-4
4.576551820400000e-4 4.810826344030000e-4 5.057057526969999e-4 5.315852858949999e-4
5.587850468190000e-4 5.873720647080000e-4 6.174167452290000e-4 6.489930382480001e-4
6.821786137460000e-4 7.170550462400000e-4 7.537080081050000e-4 7.922274722150000e-4
8.327079243130001e-4 8.752485855610001e-4 9.199536457280001e-4 9.669325074980001e-4
1.016300042390000e-3 1.068176858780000e-3 1.122689582670000e-3 1.179971151540000e-3
1.240161122150000e-3 1.303405992600000e-3 1.369859539470000e-3 1.439683170630000e-3
1.513046294250000e-3 1.590126704920000e-3 1.671110987380000e-3 1.756194938710000e-3
1.845584009630000e-3 1.939493765740000e-3 2.038150369540000e-3 2.141791083850000e-3
2.250664797669999e-3 2.365032575140000e-3 2.485168228650000e-3 2.611358916790000e-3
2.743905768140000e-3 2.883124531780000e-3 3.029346255440000e-3 3.182917992190000e-3
3.344203536590000e-3 3.513584191250000e-3 3.691459564750000e-3 3.878248401720000e-3
4.074389446130000e-3 4.280342338540001e-3 4.496588548310000e-3 4.723632341420000e-3
4.962001784870001e-3 5.212249788260000e-3 5.474955183330001e-3 5.750723841939999e-3
6.040189833209999e-3 6.344016620049999e-3 6.662898295540000e-3 6.997560859250001e-3
7.348763533650001e-3 7.717300120410000e-3 8.104000396330001e-3 8.509731548240001e-3
8.935399646430000e-3 9.381951155110000e-3 9.850374479030000e-3 1.034170154430000e-2
1.085700941130000e-2 1.139742191760000e-2 1.196411134760000e-2 1.255830012550000e-2
1.318126252770000e-2 1.383432641010000e-2 1.451887494470000e-2 1.523634835950000e-2
1.598824567510000e-2 1.677612643000000e-2 1.760161238540000e-2 1.846638920070000e-2
1.937220806730000e-2 2.032088728940000e-2 2.131431379770000e-2 2.235444458070000e-2
2.344330801680000e-2 2.458300508870000e-2 2.577571045940000e-2 2.702367338720000e-2
2.832921845470000e-2 2.969474608560000e-2 3.112273281830000e-2 3.261573130450000e-2
3.417636999830000e-2 3.580735249600000e-2 3.751145648630000e-2 3.929153226560000e-2
4.115050076960000e-2 4.309135107010000e-2 4.511713727900000e-2 4.723097480150001e-2
4.943603587260000e-2 5.173554430919999e-2 5.413276940450000e-2 5.663101888820000e-2
5.923363086949999e-2 6.194396467870000e-2 6.476539051629999e-2 6.770127781649999e-2
7.075498222589999e-2 7.392983109950001e-2 7.722910740770001e-2 8.065603195049999e-2
8.421374377220001e-2 8.790527866940000e-2 9.173354568739999e-2 9.570130150059999e-2
9.981112258010000e-2 1.040653750550000e-1 1.084661821820000e-1 1.130153893540000e-1
1.177145265860000e-1 1.225647684400000e-1 1.275668913650000e-1 1.327212284610000e-1
1.380276217090000e-1 1.434853717230000e-1 1.490931851500000e-1 1.548491198700000e-1
1.607505282060000e-1 1.667939984130000e-1 1.729752947850000e-1 1.792892967740000e-1
1.857299376250000e-1 1.922901430690000e-1 1.989617707520000e-1 2.057355511350000e-1
2.126010307190000e-1 2.195465185290000e-1 2.265590368950000e-1 2.336242776630000e-1
2.407265650240000e-1 2.478488262620000e-1 2.549725717120000e-1 2.620778853090000e-1
2.691434270350000e-1 2.761464485770000e-1 2.830628233620000e-1 2.898670920230000e-1
2.965325240700000e-1 3.030311962850000e-1 3.093340879160000e-1 3.154111922750000e-1
3.212316437520000e-1 3.267638585310000e-1 3.319756865090000e-1 3.368345710150000e-1
3.413077119580000e-1 3.453622270340000e-1 3.489653046230000e-1 3.520843411000000e-1
3.546870545450000e-1 3.567415663890000e-1 3.582164425490000e-1 3.590806862250000e-1
3.593036760340000e-1 3.588550457560000e-1 3.577045059550000e-1 3.558216134680000e-1
3.531755024160000e-1 3.497346003940000e-1 3.454663659450000e-1 3.403370983320000e-1
3.343118879610000e-1 3.273547948420000e-1 3.194293623050000e-1 3.104995920420000e-1
3.005315216900000e-1 2.894955538830000e-1 2.773696805550000e-1 2.641437212670000e-1
2.498246409320000e-1 2.344429188440000e-1 2.180597972310000e-1 2.007750287820000e-1
1.827344606910000e-1 1.641364325890000e-1 1.452355351070000e-1 1.263418098580000e-1
1.078130426040000e-1 9.003755731989999e-2 7.340511400780001e-2 5.826458178789999e-2
4.486970543280000e-2 3.331961604420000e-2 2.351048776060000e-2 1.513153767220000e-2
7.766376513270000e-3 1.166549040330000e-3 -4.674040232020000e-3 -9.738044984389999e-3
-1.401500355420000e-2 -1.750213436670000e-2 -2.020499759440000e-2 -2.213814181320000e-2
-2.332572299250000e-2 -2.380206880220000e-2 -2.361214750240000e-2 -2.281187627370000e-2
-2.146817134240000e-2 -1.965860809710000e-2 -1.747052346860000e-2 -1.499938476300000e-2
-1.234627956040000e-2 -9.614487804520000e-3 -6.905282923830001e-3 -4.313342051409999e-3
-1.922367645290000e-3 1.984221192500000e-4 1.996406890220000e-3 3.436176834259999e-3
4.498957665560000e-3 5.181570542880001e-3 5.495588037250000e-3 5.467146776689999e-3
5.137239633729999e-3 4.561976203700000e-3 3.811811013740000e-3 2.968856838400000e-3
2.121315725430000e-3 1.354644629980000e-3 7.394789192850000e-4 3.177074449050000e-4
8.979323010590001e-5 9.834082948700001e-6 -9.642288892730001e-8 0.000000000000000e0
0.000000000000000e0 0.000000000000000e0 0.000000000000000e0 0.000000000000000e0
0.000000000000000e0 0.000000000000000e0 0.000000000000000e0 0.000000000000000e0
0.000000000000000e0 0.000000000000000e0 0.000000000000000e0 0.000000000000000e0
0.000000000000000e0 0.000000000000000e0 0.000000000000000e0 0.000000000000000e0
0.000000000000000e0 0.000000000000000e0 0.000000000000000e0 0.000000000000000e0
0.000000000000000e0 0.000000000000000e0 0.000000000000000e0 0.000000000000000e0
0.000000000000000e0 0.000000000000000e0 0.000000000000000e0 0.000000000000000e0
0.000000000000000e0 0.000000000000000e0 0.000000000000000e0 0.000000000000000e0
0.000000000000000e0 0.000000000000000e0 0.000000000000000e0 0.000000000000000e0
0.000000000000000e0 0.000000000000000e0 0.000000000000000e0 0.000000000000000e0
0.000000000000000e0 0.000000000000000e0 0.000000000000000e0 0.000000000000000e0
0.000000000000000e0 0.000000000000000e0 0.000000000000000e0 0.000000000000000e0
0.000000000000000e0 0.000000000000000e0 0.000000000000000e0 0.000000000000000e0
0.000000000000000e0 0.000000000000000e0 0.000000000000000e0 0.000000000000000e0
0.000000000000000e0 0.000000000000000e0 0.000000000000000e0 0.000000000000000e0
0.000000000000000e0 0.000000000000000e0 0.000000000000000e0 0.000000000000000e0
0.000000000000000e0 0.000000000000000e0 0.000000000000000e0 0.000000000000000e0
0.000000000000000e0 0.000000000000000e0 0.000000000000000e0 0.000000000000000e0
0.000000000000000e0 0.000000000000000e0 0.000000000000000e0 0.000000000000000e0
0.000000000000000e0 0.000000000000000e0 0.000000000000000e0 0.000000000000000e0
0.000000000000000e0 0.000000000000000e0 0.000000000000000e0 0.000000000000000e0
0.000000000000000e0 0.000000000000000e0 0.000000000000000e0 0.000000000000000e0
0.000000000000000e0 0.000000000000000e0 0.000000000000000e0 0.000000000000000e0
0.000000000000000e0 0.000000000000000e0 0.000000000000000e0 0.000000000000000e0
0.000000000000000e0 0.000000000000000e0 0.000000000000000e0 0.000000000000000e0
0.000000000000000e0 0.000000000000000e0 0.000000000000000e0 0.000000000000000e0
0.000000000000000e0 0.000000000000000e0 0.000000000000000e0 0.000000000000000e0
0.000000000000000e0 0.000000000000000e0 0.000000000000000e0 0.000000000000000e0
0.000000000000000e0 0.000000000000000e0 0.000000000000000e0 0.000000000000000e0
0.000000000000000e0 0.000000000000000e0 0.000000000000000e0 0.000000000000000e0
0.000000000000000e0 0.000000000000000e0 0.000000000000000e0 0.000000000000000e0
0.000000000000000e0 0.000000000000000e0 0.000000000000000e0 0.000000000000000e0
0.000000000000000e0 0.000000000000000e0 0.000000000000000e0 0.000000000000000e0
0.000000000000000e0 0.000000000000000e0 0.000000000000000e0 0.000000000000000e0
0.000000000000000e0 0.000000000000000e0 0.000000000000000e0 0.000000000000000e0
0.000000000000000e0 0.000000000000000e0 0.000000000000000e0 0.000000000000000e0
0.000000000000000e0 0.000000000000000e0 0.000000000000000e0 0.000000000000000e0
0.000000000000000e0 0.000000000000000e0 0.000000000000000e0 0.000000000000000e0
0.000000000000000e0 0.000000000000000e0 0.000000000000000e0 0.000000000000000e0
0.000000000000000e0 0.000000000000000e0 0.000000000000000e0 0.000000000000000e0
0.000000000000000e0 0.000000000000000e0 0.000000000000000e0 0.000000000000000e0
0.000000000000000e0 0.000000000000000e0 0.000000000000000e0 0.000000000000000e0
0.000000000000000e0 0.000000000000000e0 0.000000000000000e0 0.000000000000000e0
0.000000000000000e0 0.000000000000000e0 0.000000000000000e0 0.000000000000000e0
0.000000000000000e0 0.000000000000000e0 0.000000000000000e0 0.000000000000000e0
0.000000000000000e0 0.000000000000000e0 0.000000000000000e0 0.000000000000000e0
0.000000000000000e0 0.000000000000000e0 0.000000000000000e0 0.000000000000000e0
0.000000000000000e0 0.000000000000000e0 0.000000000000000e0 0.000000000000000e0
0.000000000000000e0 0.000000000000000e0 0.000000000000000e0 0.000000000000000e0
0.000000000000000e0 0.000000000000000e0 0.000000000000000e0 0.000000000000000e0
0.000000000000000e0 0.000000000000000e0 0.000000000000000e0 0.000000000000000e0
0.000000000000000e0 0.000000000000000e0 0.000000000000000e0 0.000000000000000e0
0.000000000000000e0 0.000000000000000e0 0.000000000000000e0 0.000000000000000e0
0.000000000000000e0 0.000000000000000e0 0.000000000000000e0 0.000000000000000e0
0.000000000000000e0 0.000000000000000e0 0.000000000000000e0 0.000000000000000e0
0.000000000000000e0 0.000000000000000e0 0.000000000000000e0 0.000000000000000e0
0.000000000000000e0 0.000000000000000e0 0.000000000000000e0 0.000000000000000e0
0.000000000000000e0 0.000000000000000e0 0.000000000000000e0 0.000000000000000e0
0.000000000000000e0 0.000000000000000e0 0.000000000000000e0 0.000000000000000e0
0.000000000000000e0 0.000000000000000e0 0.000000000000000e0 0.000000000000000e0
0.000000000000000e0 0.000000000000000e0 0.000000000000000e0 0.000000000000000e0
0.000000000000000e0 0.000000000000000e0 0.000000000000000e0 0.000000000000000e0
0.000000000000000e0 0.000000000000000e0 0.000000000000000e0 0.000000000000000e0
0.000000000000000e0 0.000000000000000e0 0.000000000000000e0 0.000000000000000e0
0.000000000000000e0 0.000000000000000e0 0.000000000000000e0 0.000000000000000e0
0.000000000000000e0 0.000000000000000e0 0.000000000000000e0 0.000000000000000e0
0.000000000000000e0 0.000000000000000e0 0.000000000000000e0 0.000000000000000e0
0.000000000000000e0 0.000000000000000e0 0.000000000000000e0 0.000000000000000e0
0.000000000000000e0 0.000000000000000e0 0.000000000000000e0 0.000000000000000e0
0.000000000000000e0 0.000000000000000e0 0.000000000000000e0 0.000000000000000e0
0.000000000000000e0 0.000000000000000e0 0.000000000000000e0 0.000000000000000e0
0.000000000000000e0 0.000000000000000e0 0.000000000000000e0
</PP_QIJ.2.4>
<PP_QIJ.2.5 first_index="2" second_index="5" composite_index="12">
0.000000000000000e0 -6.711353001920002e-24 -1.110367817050000e-22 -5.813114974770000e-22
-1.900120210560000e-21 -4.798202260020000e-21 -1.029203264670000e-20 -1.972541394970000e-20
-3.481544183450000e-20 -5.770323675260000e-20 -9.100986665509998e-20 -1.378979202590000e-19
-2.021392278250000e-19 -2.881892666990000e-19 -4.012688322850000e-19 -5.474536018610000e-19
-7.337722689880000e-19 -9.683139804380001e-19 -1.260345865920000e-18 -1.620441513599999e-18
-2.060621312060000e-18 -2.594505651910000e-18 -3.237482058449999e-18 -4.006887411060001e-18
-4.922206495149998e-18 -6.005288230000000e-18 -7.280581020250001e-18 -8.775388791349997e-18
-1.052014938990000e-17 -1.254873716010000e-17 -1.489879164680000e-17 -1.761207452530000e-17
-2.073485702060000e-17 -2.431834025020000e-17 -2.841911111200001e-17 -3.309963653720000e-17
-3.842879914500000e-17 -4.448247756400001e-17 -5.134417493310000e-17 -5.910569936319999e-17
-6.786790042190000e-17 -7.774146601269999e-17 -8.884778434950002e-17 -1.013198760770000e-16
-1.153034019690000e-16 -1.309577520450000e-16 -1.484572223720000e-16 -1.679922863070000e-16
-1.897709674070000e-16 -2.140203218039999e-16 -2.409880384080000e-16 -2.709441658989999e-16
-3.041829761860001e-16 -3.410249746659999e-16 -3.818190684250001e-16 -4.269449043220000e-16
-4.768153897799998e-16 -5.318794100650001e-16 -5.926247568200001e-16 -6.595812837339999e-16
-7.333243063709999e-16 -8.144782644359999e-16 -9.037206661020003e-16 -1.001786335430000e-15
-1.109471985480000e-15 -1.227641141330000e-15 -1.357229439040000e-15 -1.499250328370000e-15
-1.654801209230000e-15 -1.825070033960000e-15 -2.011342409760000e-15 -2.215009238329999e-15
-2.437574932110000e-15 -2.680666249769998e-15 -2.946041796290000e-15 -3.235602236520000e-15
-3.551401274539999e-15 -3.895657454879999e-15 -4.270766845740001e-15 -4.679316668689997e-15
-5.124099943960001e-15 -5.608131225320000e-15 -6.134663504030000e-15 -6.707206366900000e-15
-7.329545499550001e-15 -8.005763632829998e-15 -8.740263036789999e-15 -9.537789674750002e-15
-1.040345913740000e-14 -1.134278448600000e-14 -1.236170614250000e-14 -1.346662397470000e-14
-1.466443173480000e-14 -1.596255402070000e-14 -1.736898594250000e-14 -1.889233568840000e-14
-2.054187019940000e-14 -2.232756417520000e-14 -2.426015265110000e-14 -2.635118740300000e-14
-2.861309745410000e-14 -3.105925397750000e-14 -3.370403990970001e-14 -3.656292461300001e-14
-3.965254394660001e-14 -4.299078613360000e-14 -4.659688383939999e-14 -5.049151290180001e-14
-5.469689819100000e-14 -5.923692710600000e-14 -6.413727125070000e-14 -6.942551687540001e-14
-7.513130470459998e-14 -8.128647982059999e-14 -8.792525231719999e-14 -9.508436948959996e-14
-1.028033003790000e-13 -1.111244335500000e-13 -1.200932890390000e-13 -1.297587454780000e-13
-1.401732834750000e-13 -1.513932463870000e-13 -1.634791197460000e-13 -1.764958306210000e-13
-1.905130683640000e-13 -2.056056282220000e-13 -2.218537794510000e-13 -2.393436596540000e-13
-2.581676971969999e-13 -2.784250636860000e-13 -3.002221586289999e-13 -3.236731285420000e-13
-3.489004229489999e-13 -3.760353898489999e-13 -4.052189134590000e-13 -4.366020971890000e-13
-4.703469950410000e-13 -5.066273948450001e-13 -5.456296569719999e-13 -5.875536124320002e-13
-6.326135245199999e-13 -6.810391184949999e-13 -7.330766840560001e-13 -7.889902557339999e-13
-8.490628766730000e-13 -9.135979516499999e-13 -9.829206955940004e-13 -1.057379684310000e-12
-1.137348514580000e-12 -1.223227581260000e-12 -1.315445979680000e-12 -1.414463542020000e-12
-1.520773017050000e-12 -1.634902403410000e-12 -1.757417447000000e-12 -1.888924314050000e-12
-2.030072452210000e-12 -2.181557652710000e-12 -2.344125327750000e-12 -2.518574018090000e-12
-2.705759146970000e-12 -2.906597037620000e-12 -3.122069212650000e-12 -3.353226995180000e-12
-3.601196432609999e-12 -3.867183565710000e-12 -4.152480067040002e-12 -4.458469274530000e-12
-4.786632647720001e-12 -5.138556676280002e-12 -5.515940272180001e-12 -5.920602679469999e-12
-6.354491937479999e-12 -6.819693936279998e-12 -7.318442105489998e-12 -7.853127780709999e-12
-8.426311294690001e-12 -9.040733843769999e-12 -9.699330183559997e-12 -1.040524221170000e-11
-1.116183349910000e-11 -1.197270483660000e-11 -1.284171086610000e-11 -1.377297787390000e-11
-1.477092282450000e-11 -1.584027372340000e-11 -1.698609140020000e-11 -1.821379281090000e-11
-1.952917596540000e-11 -2.093844659250000e-11 -2.244824666390000e-11 -2.406568490670000e-11
-2.579836944070001e-11 -2.765444269080000e-11 -2.964261873080001e-11 -3.177222322760000e-11
-3.405323616710001e-11 -3.649633755500001e-11 -3.911295629820000e-11 -4.191532248880001e-11
-4.491652332540000e-11 -4.813056292629999e-11 -5.157242630300000e-11 -5.525814778310000e-11
-5.920488419169999e-11 -6.343099312189999e-11 -6.795611664630002e-11 -7.280127084709998e-11
-7.798894157069998e-11 -8.354318683430002e-11 -8.948974635000003e-11 -9.585615865739999e-11
-1.026718863930000e-10 -1.099684502610000e-10 -1.177795723060000e-10 -1.261413291400000e-10
-1.350923158010000e-10 -1.446738209920000e-10 -1.549300144830000e-10 -1.659081475230000e-10
-1.776587671500000e-10 -1.902359453890000e-10 -2.036975243360000e-10 -2.181053782570000e-10
-2.335256938620000e-10 -2.500292700200000e-10 -2.676918382650000e-10 -2.865944055230000e-10
-3.068236206060000e-10 -3.284721661140000e-10 -3.516391775160000e-10 -3.764306912650000e-10
-4.029601239909999e-10 -4.313487848930000e-10 -4.617264236469999e-10 -4.942318162819998e-10
-5.290133916440000e-10 -5.662299012730000e-10 -6.060511356789999e-10 -6.486586902420001e-10
-6.942467841560002e-10 -7.430231361000001e-10 -7.952099005500001e-10 -8.510446689319997e-10
-9.107815400950001e-10 -9.746922649080002e-10 -1.043067470100000e-9 -1.116217966810000e-9
-1.194476149770000e-9 -1.278197493260000e-9 -1.367762150660000e-9 -1.463576664710000e-9
-1.566075796090000e-9 -1.675724478550000e-9 -1.793019909380000e-9 -1.918493784400000e-9
-2.052714687730000e-9 -2.196290646780001e-9 -2.349871864030000e-9 -2.514153637780000e-9
-2.689879484940000e-9 -2.877844479750000e-9 -3.078898823480000e-9 -3.293951661000000e-9
-3.523975161210000e-9 -3.770008879709999e-9 -4.033164423100000e-9 -4.314630435770000e-9
-4.615677931510000e-9 -4.937665993680000e-9 -5.282047869459998e-9 -5.650377485390000e-9
-6.044316413290001e-9 -6.465641317679999e-9 -6.916251917939999e-9 -7.398179500769999e-9
-7.913596021000001e-9 -8.464823831249999e-9 -9.054346084040002e-9 -9.684817852689999e-9
-1.035907802060000e-8 -1.108016199220000e-8 -1.185131528180000e-8 -1.267600804150000e-8
-1.355795059320000e-8 -1.450111003250000e-8 -1.550972798080000e-8 -1.658833956320000e-8
-1.774179369660000e-8 -1.897527478080000e-8 -2.029432588610000e-8 -2.170487354320001e-8
-2.321325424530000e-8 -2.482624278000000e-8 -2.655108251790000e-8 -2.839551779340000e-8
-3.036782852030000e-8 -3.247686719870000e-8 -3.473209847670001e-8 -3.714364144350000e-8
-3.972231484290000e-8 -4.247968540810000e-8 -4.542811953320000e-8 -4.858083851240000e-8
-5.195197759190000e-8 -5.555664909860001e-8 -5.941100992620001e-8 -6.353233367910001e-8
-6.793908779690000e-8 -7.265101600079999e-8 -7.768922643080002e-8 -8.307628586580002e-8
-8.883632044590000e-8 -9.499512334509998e-8 -1.015802698740000e-7 -1.086212405280000e-7
-1.161495525210000e-7 -1.241989003970000e-7 -1.328053063470000e-7 -1.420072808920000e-7
-1.518459946540000e-7 -1.623654619770000e-7 -1.736127372150000e-7 -1.856381245610000e-7
-1.984954023500000e-7 -2.122420628360000e-7 -2.269395685050000e-7 -2.426536260650000e-7
-2.594544793420000e-7 -2.774172223629999e-7 -2.966221340430000e-7 -3.171550359440000e-7
-3.391076747100001e-7 -3.625781308670000e-7 -3.876712558180000e-7 -4.144991389640000e-7
-4.431816070290001e-7 -4.738467578170001e-7 -5.066315307590000e-7 -5.416823167960001e-7
-5.791556103000000e-7 -6.192187059299998e-7 -6.620504435289999e-7 -7.078420043459999e-7
-7.567977621420001e-7 -8.091361929490002e-7 -8.650908475179998e-7 -9.249113907719998e-7
-9.888647128890000e-7 -1.057236116930000e-6 -1.130330588270000e-6 -1.208474151530000e-6
-1.292015320900000e-6 -1.381326650460000e-6 -1.476806391180000e-6 -1.578880262070000e-6
-1.688003343350000e-6 -1.804662099930000e-6 -1.929376544170000e-6 -2.062702547660000e-6
-2.205234312010000e-6 -2.357607009820000e-6 -2.520499607380000e-6 -2.694637881600000e-6
-2.880797644620000e-6 -3.079808190220000e-6 -3.292555977420000e-6 -3.519988567380000e-6
-3.763118831220000e-6 -4.023029447100001e-6 -4.300877706650001e-6 -4.597900651830001e-6
-4.915420564940000e-6 -5.254850836000000e-6 -5.617702233379999e-6 -6.005589605360000e-6
-6.420239042050000e-6 -6.863495529370001e-6 -7.337331128620001e-6 -7.843853717880000e-6
-8.385316333380000e-6 -8.964127152180000e-6 -9.582860159919999e-6 -1.024426655050000e-5
-1.095128690760000e-5 -1.170706422210000e-5 -1.251495780100000e-5 -1.337855813080000e-5
-1.430170275900000e-5 -1.528849326290000e-5 -1.634331338150000e-5 -1.747084838830000e-5
-1.867610578960000e-5 -1.996443743970000e-5 -2.134156316740000e-5 -2.281359601880000e-5
-2.438706922420000e-5 -2.606896500760000e-5 -2.786674536250000e-5 -2.978838492860000e-5
-3.184240611030001e-5 -3.403791658960000e-5 -3.638464939480000e-5 -3.889300569800000e-5
-4.157410052430000e-5 -4.443981157010001e-5 -4.750283133949999e-5 -5.077672282050000e-5
-5.427597894050001e-5 -5.801608605240000e-5 -6.201359172260000e-5 -6.628617710689999e-5
-7.085273422160000e-5 -7.573344843439999e-5 -8.094988652230001e-5 -8.652509066670000e-5
-9.248367877639998e-5 -9.885195155820002e-5 -1.056580067780000e-4 -1.129318611880000e-4
-1.207055806140000e-4 -1.290134187460000e-4 -1.378919651940000e-4 -1.473803034100000e-4
-1.575201791100000e-4 -1.683561798870000e-4 -1.799359267130000e-4 -1.923102781090000e-4
-2.055335477750000e-4 -2.196637365430000e-4 -2.347627795400000e-4 -2.508968095350000e-4
-2.681364374590000e-4 -2.865570511730000e-4 -3.062391335940000e-4 -3.272686013750000e-4
-3.497371653700000e-4 -3.737427141980000e-4 -3.993897222830000e-4 -4.267896838040000e-4
-4.560615740759999e-4 -4.873323399280000e-4 -5.207374207500001e-4 -5.564213019120001e-4
-5.945381023560000e-4 -6.352521982250002e-4 -6.787388844540000e-4 -7.251850763189999e-4
-7.747900529950000e-4 -8.277662452500000e-4 -8.843400694160000e-4 -9.447528098590002e-4
-1.009261552170000e-3 -1.078140169350000e-3 -1.151680363240000e-3 -1.230192763450000e-3
-1.314008086050000e-3 -1.403478354110000e-3 -1.498978182260000e-3 -1.600906127240000e-3
-1.709686106210000e-3 -1.825768884590000e-3 -1.949633634680000e-3 -2.081789566290000e-3
-2.222777630200000e-3 -2.373172294600000e-3 -2.533583394630000e-3 -2.704658054050000e-3
-2.887082677860000e-3 -3.081585013480000e-3 -3.288936277530000e-3 -3.509953344010000e-3
-3.745500988549999e-3 -3.996494182120000e-3 -4.263900425889999e-3 -4.548742117390001e-3
-4.852098936190000e-3 -5.175110234969999e-3 -5.518977419680001e-3 -5.884966299779999e-3
-6.274409386449999e-3 -6.688708113840001e-3 -7.129334954369999e-3 -7.597835395790000e-3
-8.095829743130000e-3 -8.625014704520000e-3 -9.187164714769999e-3 -9.784132945750001e-3
-1.041785194690000e-2 -1.109033385380000e-2 -1.180367009660000e-2 -1.256003053410000e-2
-1.336166193300000e-2 -1.421088570550000e-2 -1.511009481230000e-2 -1.606174973290000e-2
-1.706837339740000e-2 -1.813254497210000e-2 -1.925689238320000e-2 -2.044408346490000e-2
-2.169681561000000e-2 -2.301780380750000e-2 -2.440976694990000e-2 -2.587541229760000e-2
-2.741741799900000e-2 -2.903841357170000e-2 -3.074095826930000e-2 -3.252751727560000e-2
-3.440043569680000e-2 -3.636191034930000e-2 -3.841395938200000e-2 -4.055838981400000e-2
-4.279676312160000e-2 -4.513035906430000e-2 -4.756013800980000e-2 -5.008670208490001e-2
-5.271025556000000e-2 -5.543056495780000e-2 -5.824691945780001e-2 -6.115809225380000e-2
-6.416230360100000e-2 -6.725718635489999e-2 -7.043975485999999e-2 -7.370637807480001e-2
-7.705275781420000e-2 -8.047391294350000e-2 -8.396417025390001e-2 -8.751716257489999e-2
-9.112583441620000e-2 -9.478245507430000e-2 -9.847863865560001e-2 -1.022053698580000e-1
-1.059530335990000e-1 -1.097114456740000e-1 -1.134698805660000e-1 -1.172170913420000e-1
-1.209413152770000e-1 -1.246302574610000e-1 -1.282710433230000e-1 -1.318501298020000e-1
-1.353531639250000e-1 -1.387647771770000e-1 -1.420683043240000e-1 -1.452454167780000e-1
-1.482756634700000e-1 -1.511359170310000e-1 -1.537997302860000e-1 -1.562366182950000e-1
-1.584112947650000e-1 -1.602829090620000e-1 -1.618043513480000e-1 -1.629217183750000e-1
-1.635740601170000e-1 -1.636935561040000e-1 -1.632062967260000e-1 -1.620338641640000e-1
-1.600959128490000e-1 -1.573139307260000e-1 -1.536163073130000e-1 -1.489447269180000e-1
-1.432617274960000e-1 -1.365589993960000e-1 -1.288656301820000e-1 -1.202550305870000e-1
-1.108487286970000e-1 -1.008146722760000e-1 -9.035730140410001e-2 -7.969676824090000e-2
-6.903586371040000e-2 -5.851644190199999e-2 -4.817402840980000e-2 -3.791245711210000e-2
-2.754390320500000e-2 -1.695486351720000e-2 -6.176803279550001e-3 4.735345815520001e-3
1.572119584170000e-2 2.671496428640000e-2 3.764560606560000e-2 4.843706775840000e-2
5.900870097380000e-2 6.927587263980000e-2 7.915082064900001e-2 8.854380614010001e-2
9.736460717610001e-2 1.055243879620000e-1 1.129379258270000e-1 1.195261277360000e-1
1.252186478460000e-1 1.299563406740000e-1 1.336931616440000e-1 1.363971666090000e-1
1.380503233040000e-1 1.386471626760000e-1 1.381925455340000e-1 1.366991770210000e-1
1.341855020910000e-1 1.306745811870000e-1 1.261941265940000e-1 1.207776777870000e-1
1.144665751520000e-1 1.073125241940000e-1 9.938054824530001e-2 9.075244270930000e-2
8.153081571580000e-2 7.184390745510000e-2 6.185106373620000e-2 5.174847922840000e-2
4.177416797309999e-2 3.221049484740000e-2 2.338182214920000e-2 1.564338443470000e-2
9.337220959880000e-3 4.705661064670000e-3 1.802236970760000e-3 4.106840393710000e-4
2.383193136360000e-5 0.000000000000000e0 0.000000000000000e0 0.000000000000000e0
0.000000000000000e0 0.000000000000000e0 0.000000000000000e0 0.000000000000000e0
0.000000000000000e0 0.000000000000000e0 0.000000000000000e0 0.000000000000000e0
0.000000000000000e0 0.000000000000000e0 0.000000000000000e0 0.000000000000000e0
0.000000000000000e0 0.000000000000000e0 0.000000000000000e0 0.000000000000000e0
0.000000000000000e0 0.000000000000000e0 0.000000000000000e0 0.000000000000000e0
0.000000000000000e0 0.000000000000000e0 0.000000000000000e0 0.000000000000000e0
0.000000000000000e0 0.000000000000000e0 0.000000000000000e0 0.000000000000000e0
0.000000000000000e0 0.000000000000000e0 0.000000000000000e0 0.000000000000000e0
0.000000000000000e0 0.000000000000000e0 0.000000000000000e0 0.000000000000000e0
0.000000000000000e0 0.000000000000000e0 0.000000000000000e0 0.000000000000000e0
0.000000000000000e0 0.000000000000000e0 0.000000000000000e0 0.000000000000000e0
0.000000000000000e0 0.000000000000000e0 0.000000000000000e0 0.000000000000000e0
0.000000000000000e0 0.000000000000000e0 0.000000000000000e0 0.000000000000000e0
0.000000000000000e0 0.000000000000000e0 0.000000000000000e0 0.000000000000000e0
0.000000000000000e0 0.000000000000000e0 0.000000000000000e0 0.000000000000000e0
0.000000000000000e0 0.000000000000000e0 0.000000000000000e0 0.000000000000000e0
0.000000000000000e0 0.000000000000000e0 0.000000000000000e0 0.000000000000000e0
0.000000000000000e0 0.000000000000000e0 0.000000000000000e0 0.000000000000000e0
0.000000000000000e0 0.000000000000000e0 0.000000000000000e0 0.000000000000000e0
0.000000000000000e0 0.000000000000000e0 0.000000000000000e0 0.000000000000000e0
0.000000000000000e0 0.000000000000000e0 0.000000000000000e0 0.000000000000000e0
0.000000000000000e0 0.000000000000000e0 0.000000000000000e0 0.000000000000000e0
0.000000000000000e0 0.000000000000000e0 0.000000000000000e0 0.000000000000000e0
0.000000000000000e0 0.000000000000000e0 0.000000000000000e0 0.000000000000000e0
0.000000000000000e0 0.000000000000000e0 0.000000000000000e0 0.000000000000000e0
0.000000000000000e0 0.000000000000000e0 0.000000000000000e0 0.000000000000000e0
0.000000000000000e0 0.000000000000000e0 0.000000000000000e0 0.000000000000000e0
0.000000000000000e0 0.000000000000000e0 0.000000000000000e0 0.000000000000000e0
0.000000000000000e0 0.000000000000000e0 0.000000000000000e0 0.000000000000000e0
0.000000000000000e0 0.000000000000000e0 0.000000000000000e0 0.000000000000000e0
0.000000000000000e0 0.000000000000000e0 0.000000000000000e0 0.000000000000000e0
0.000000000000000e0 0.000000000000000e0 0.000000000000000e0 0.000000000000000e0
0.000000000000000e0 0.000000000000000e0 0.000000000000000e0 0.000000000000000e0
0.000000000000000e0 0.000000000000000e0 0.000000000000000e0 0.000000000000000e0
0.000000000000000e0 0.000000000000000e0 0.000000000000000e0 0.000000000000000e0
0.000000000000000e0 0.000000000000000e0 0.000000000000000e0 0.000000000000000e0
0.000000000000000e0 0.000000000000000e0 0.000000000000000e0 0.000000000000000e0
0.000000000000000e0 0.000000000000000e0 0.000000000000000e0 0.000000000000000e0
0.000000000000000e0 0.000000000000000e0 0.000000000000000e0 0.000000000000000e0
0.000000000000000e0 0.000000000000000e0 0.000000000000000e0 0.000000000000000e0
0.000000000000000e0 0.000000000000000e0 0.000000000000000e0 0.000000000000000e0
0.000000000000000e0 0.000000000000000e0 0.000000000000000e0 0.000000000000000e0
0.000000000000000e0 0.000000000000000e0 0.000000000000000e0 0.000000000000000e0
0.000000000000000e0 0.000000000000000e0 0.000000000000000e0 0.000000000000000e0
0.000000000000000e0 0.000000000000000e0 0.000000000000000e0 0.000000000000000e0
0.000000000000000e0 0.000000000000000e0 0.000000000000000e0 0.000000000000000e0
0.000000000000000e0 0.000000000000000e0 0.000000000000000e0 0.000000000000000e0
0.000000000000000e0 0.000000000000000e0 0.000000000000000e0 0.000000000000000e0
0.000000000000000e0 0.000000000000000e0 0.000000000000000e0 0.000000000000000e0
0.000000000000000e0 0.000000000000000e0 0.000000000000000e0 0.000000000000000e0
0.000000000000000e0 0.000000000000000e0 0.000000000000000e0 0.000000000000000e0
0.000000000000000e0 0.000000000000000e0 0.000000000000000e0 0.000000000000000e0
0.000000000000000e0 0.000000000000000e0 0.000000000000000e0 0.000000000000000e0
0.000000000000000e0 0.000000000000000e0 0.000000000000000e0 0.000000000000000e0
0.000000000000000e0 0.000000000000000e0 0.000000000000000e0 0.000000000000000e0
0.000000000000000e0 0.000000000000000e0 0.000000000000000e0 0.000000000000000e0
0.000000000000000e0 0.000000000000000e0 0.000000000000000e0 0.000000000000000e0
0.000000000000000e0 0.000000000000000e0 0.000000000000000e0 0.000000000000000e0
0.000000000000000e0 0.000000000000000e0 0.000000000000000e0 0.000000000000000e0
0.000000000000000e0 0.000000000000000e0 0.000000000000000e0 0.000000000000000e0
0.000000000000000e0 0.000000000000000e0 0.000000000000000e0 0.000000000000000e0
0.000000000000000e0 0.000000000000000e0 0.000000000000000e0 0.000000000000000e0
0.000000000000000e0 0.000000000000000e0 0.000000000000000e0 0.000000000000000e0
0.000000000000000e0 0.000000000000000e0 0.000000000000000e0 0.000000000000000e0
0.000000000000000e0 0.000000000000000e0 0.000000000000000e0 0.000000000000000e0
0.000000000000000e0 0.000000000000000e0 0.000000000000000e0 0.000000000000000e0
0.000000000000000e0 0.000000000000000e0 0.000000000000000e0 0.000000000000000e0
0.000000000000000e0 0.000000000000000e0 0.000000000000000e0 0.000000000000000e0
0.000000000000000e0 0.000000000000000e0 0.000000000000000e0 0.000000000000000e0
0.000000000000000e0 0.000000000000000e0 0.000000000000000e0
</PP_QIJ.2.5>
<PP_QIJ.2.6 first_index="2" second_index="6" composite_index="17">
0.000000000000000e0 1.302928313820000e-23 2.155645318000000e-22 1.128546224580000e-21
3.688854425200000e-21 9.315131506669999e-21 1.998074119840000e-20 3.829451428020000e-20
6.758998507710001e-20 1.120238809420000e-19 1.766846894649999e-19 2.677121955500000e-19
3.924289531440000e-19 5.594847346320000e-19 7.790150851869998e-19 1.062815200130000e-18
1.424530441060001e-18 1.879864911690000e-18 2.446809627670000e-18 3.145891936330000e-18
4.000447973649999e-18 5.036920086730000e-18 6.285181301770000e-18 7.778889081019999e-18
9.555870787450001e-18 1.165854346510000e-17 1.413437074550000e-17 1.703635990990000e-17
2.042360236970000e-17 2.436186108240000e-17 2.892420868870000e-17 3.419172044900000e-17
4.025422637119999e-17 4.721112725519999e-17 5.517227974450000e-17 6.425895585900000e-17
7.460488290390000e-17 8.635737009280000e-17 9.967852870850001e-17 1.147465931360000e-16
1.317573506570000e-16 1.509256885000001e-16 1.724872672550000e-16 1.967003304750000e-16
2.238476610019999e-16 2.542386953500000e-16 2.882118083340001e-16 3.261367810240000e-16
3.684174660869999e-16 4.154946656500000e-16 4.678492378810001e-16 5.260054497560001e-16
5.905345947260000e-16 6.620588954000000e-16 7.412557128439998e-16 8.288620856890001e-16
9.256796239459998e-16 1.032579784270000e-15 1.150509555360000e-15 1.280497584310000e-15
1.423660776960000e-15 1.581211407770000e-15 1.754464777200000e-15 1.944847457650000e-15
2.153906171509999e-15 2.383317348700000e-15 2.634897413860000e-15 2.910613857599999e-15
3.212597149630000e-15 3.543153556270001e-15 3.904778929010000e-15 4.300173535890000e-15
4.732258012429998e-15 5.204190514560000e-15 5.719385161960000e-15 6.281531866450001e-15
6.894617647060000e-15 7.562949540670000e-15 8.291179225030003e-15 9.084329479080001e-15
9.947822615089999e-15 1.088751102600000e-14 1.190971000250000e-14 1.302123298440000e-14
1.422942942430000e-14 1.554222545230000e-14 1.696816754520000e-14 1.851646941920000e-14
2.019706237720000e-14 2.202064936340000e-14 2.399876299149999e-14 2.614382783389999e-14
2.846922727980000e-14 3.098937529150001e-14 3.371979341210001e-14 3.667719340240001e-14
3.987956591170000e-14 4.334627561770001e-14 4.709816329840000e-14 5.115765533539999e-14
5.554888117980000e-14 6.029779935340000e-14 6.543233259509997e-14 7.098251280840000e-14
7.698063650990000e-14 8.346143153050001e-14 9.046223577290002e-14 9.802318888630001e-14
1.061874377790000e-13 1.150013569600000e-13 1.245147847550000e-13 1.347812765470000e-13
1.458583762330000e-13 1.578079072060000e-13 1.706962842410000e-13 1.845948477870000e-13
1.995802222349999e-13 2.157346998790000e-13 2.331466523870000e-13 2.519109717390000e-13
2.721295427119999e-13 2.939117491549999e-13 3.173750164410000e-13 3.426453926590000e-13
3.698581712949999e-13 3.991585583160000e-13 4.307023868180000e-13 4.646568825889999e-13
5.012014841739999e-13 5.405287213080000e-13 5.828451558259999e-13 6.283723894530001e-13
6.773481431970001e-13 7.300274133930000e-13 7.866837097910001e-13 8.476103814750001e-13
9.131220367879999e-13 9.835560638899995e-13 1.059274259020000e-12 1.140664570030000e-12
1.228142963330000e-12 1.322155422880000e-12 1.423180090500000e-12 1.531729557460000e-12
1.648353317980000e-12 1.773640395939999e-12 1.908222157020001e-12 2.052775319210000e-12
2.208025175740000e-12 2.374749045080000e-12 2.553779964220000e-12 2.746010642029999e-12
2.952397691039999e-12 3.173966157140000e-12 3.411814367970000e-12 3.667119122420001e-12
3.941141245050001e-12 4.235231530940000e-12 4.550837108300000e-12 4.889508248079999e-12
5.252905651750000e-12 5.642808250789999e-12 6.061121553479999e-12 6.509886577400001e-12
6.991289408369999e-12 7.507671429770002e-12 8.061540268830003e-12 8.655581510080001e-12
9.292671229450001e-12 9.975889406279999e-12 1.070853427440000e-11 1.149413767780000e-11
1.233648150130000e-11 1.323961525030000e-11 1.420787486080000e-11 1.524590282400000e-11
1.635866971920000e-11 1.755149725069999e-11 1.883008289490000e-11 2.020052626970000e-11
2.166935734550000e-11 2.324356662630000e-11 2.493063743830001e-11 2.673858047230000e-11
2.867597073659999e-11 3.075198708850000e-11 3.297645452350000e-11 3.535988941419999e-11
3.791354790380000e-11 4.064947767340000e-11 4.358057331820000e-11 4.672063558250001e-11
5.008443472330000e-11 5.368777828700001e-11 5.754758360850001e-11 6.168195535800002e-11
6.611026848899999e-11 7.085325696009997e-11 7.593310863310000e-11 8.137356677560000e-11
8.720003862680002e-11 9.343971151680000e-11 1.001216770640000e-10 1.072770640100000e-10
1.149391802930000e-10 1.231436650010000e-10 1.319286508880000e-10 1.413349381860000e-10
1.514061804990000e-10 1.621890836200000e-10 1.737336181530000e-10 1.860932469140000e-10
1.993251681300000e-10 2.134905755229999e-10 2.286549364630000e-10 2.448882894360000e-10
2.622655621580001e-10 2.808669117829999e-10 3.007780887220000e-10 3.220908257140000e-10
3.449032539000001e-10 3.693203477650000e-10 3.954544009550001e-10 4.234255351079999e-10
4.533622439720000e-10 4.854019752739999e-10 5.196917529409999e-10 5.563888424650000e-10
5.956614624149998e-10 6.376895452730000e-10 6.826655510189999e-10 7.307953371159998e-10
7.822990887940000e-10 8.374123138139998e-10 8.963869061650001e-10 9.594922834760002e-10
1.027016603240000e-9 1.099268063280000e-9 1.176576292370000e-9 1.259293837080000e-9
1.347797751740000e-9 1.442491298390000e-9 1.543805764600000e-9 1.652202407040000e-9
1.768174529750001e-9 1.892249706180000e-9 2.024992155230001e-9 2.167005281620000e-9
2.318934392220001e-9 2.481469600380000e-9 2.655348931250001e-9 2.841361642060000e-9
3.040351772140000e-9 3.253221938650000e-9 3.480937394899999e-9 3.724530369529999e-9
3.985104705869999e-9 4.263840822280000e-9 4.562001015589999e-9 4.880935131540001e-9
5.222086627230000e-9 5.586999053090000e-9 5.977322983070001e-9 6.394823424060001e-9
6.841387737820002e-9 7.319034110619999e-9 7.829920608579998e-9 8.376354859099999e-9
8.960804401679999e-9 9.585907754350004e-9 1.025448624510000e-8 1.096955666130000e-8
1.173434477350000e-8 1.255229979370000e-8 1.342710983380000e-8 1.436271843130000e-8
1.536334221820000e-8 1.643348981020000e-8 1.757798200190000e-8 1.880197335660000e-8
2.011097528950000e-8 2.151088074400000e-8 2.300799057450000e-8 2.460904175100000e-8
2.632123751300000e-8 2.815227960610000e-8 3.011040274560001e-8 3.220441146130001e-8
3.444371948640001e-8 3.683839186839999e-8 3.939918998750000e-8 4.213761968500000e-8
4.506598271540000e-8 4.819743175190001e-8 5.154602919090000e-8 5.512681001680000e-8
5.895584900830000e-8 6.305033258580001e-8 6.742863561840000e-8 7.211040353610000e-8
7.711664011000002e-8 8.246980129330000e-8 8.819389554130000e-8 9.431459105689999e-8
1.008593304400000e-7 1.078574532510000e-7 1.153403270350000e-7 1.233414873900000e-7
1.318967877040000e-7 1.410445592250000e-7 1.508257821820000e-7 1.612842687170001e-7
1.724668584330000e-7 1.844236274530000e-7 1.972081118900000e-7 2.108775467480000e-7
2.254931213090000e-7 2.411202521309999e-7 2.578288748989999e-7 2.756937564000000e-7
2.947948280290000e-7 3.152175423060000e-7 3.370532539780000e-7 3.603996274319999e-7
3.853610721899999e-7 4.120492084680000e-7 4.405833648300000e-7 4.710911101830001e-7
5.037088224590001e-7 5.385822965200000e-7 5.758673939910002e-7 6.157307379130000e-7
6.583504552960000e-7 7.039169708800001e-7 7.526338556389999e-7 8.047187337820001e-7
8.604042523030000e-7 9.199391173770000e-7 9.835892022110000e-7 1.051638731270000e-6
1.124391546150000e-6 1.202172458720000e-6 1.285328697500000e-6 1.374231453800000e-6
1.469277534410000e-6 1.570891128120000e-6 1.679525694100000e-6 1.795665980380000e-6
1.919830181340000e-6 2.052572244009999e-6 2.194484333170000e-6 2.346199466340000e-6
2.508394330279999e-6 2.681792291530000e-6 2.867166614360000e-6 3.065343900290000e-6
3.277207764630001e-6 3.503702766090000e-6 3.745838607079999e-6 4.004694623270001e-6
4.281424582170001e-6 4.577261812140000e-6 4.893524684550000e-6 5.231622473170000e-6
5.593061616969999e-6 5.979452413889998e-6 6.392516175240002e-6 6.834092872390000e-6
7.306149309590002e-6 7.810787858910000e-6 8.350255796110000e-6 8.926955278570002e-6
9.543454009290000e-6 1.020249663420000e-5 1.090701692310000e-5 1.166015078760000e-5
1.246525019380000e-5 1.332589803160000e-5 1.424592400450000e-5 1.522942161210000e-5
1.628076629780000e-5 1.740463484360000e-5 1.860602609600000e-5 1.989028311430000e-5
2.126311683940000e-5 2.273063138560000e-5 2.429935106820000e-5 2.597624928380000e-5
2.776877937069999e-5 2.968490758440000e-5 3.173314833260000e-5 3.392260182340000e-5
3.626299429200000e-5 3.876472098030001e-5 4.143889205760000e-5 4.429738168310000e-5
4.735288042180000e-5 5.061895124430000e-5 5.411008935119998e-5 5.784178608280000e-5
6.183059719209999e-5 6.609421577380001e-5 7.065155016620000e-5 7.552280716299999e-5
8.072958089009997e-5 8.629494773319999e-5 9.224356772130001e-5 9.860179280210000e-5
1.053977824700000e-4 1.126616272450000e-4 1.204254805170000e-4 1.287236993380000e-4
1.375929947260000e-4 1.470725921510000e-4 1.572044028510000e-4 1.680332067200000e-4
1.796068475100000e-4 1.919764411950000e-4 2.051965983290000e-4 2.193256613450000e-4
2.344259577660000e-4 2.505640703670000e-4 2.678111254010000e-4 2.862431000540001e-4
3.059411503900000e-4 3.269919610930000e-4 3.494881184210000e-4 3.735285078510000e-4
3.992187379940000e-4 4.266715924500001e-4 4.560075113600001e-4 4.873551045270000e-4
5.208516980780001e-4 5.566439167460000e-4 5.948883039729999e-4 6.357519821379999e-4
6.794133553690001e-4 7.260628574879999e-4 7.759037477840001e-4 8.291529574640000e-4
8.860419897210001e-4 9.468178765449998e-4 1.011744195520000e-3 1.081102149990000e-3
1.155191716090000e-3 1.234332860430000e-3 1.318866832000000e-3 1.409157532530000e-3
1.505592969090000e-3 1.608586793260000e-3 1.718579931120000e-3 1.836042308380000e-3
1.961474675100000e-3 2.095410534550000e-3 2.238418180600000e-3 2.391102848230000e-3
2.554108981540000e-3 2.728122623640000e-3 2.913873932670000e-3 3.112139827840000e-3
3.323746769370000e-3 3.549573675530000e-3 3.790554979960000e-3 4.047683831370000e-3
4.322015437570000e-3 4.614670554700000e-3 4.926839121540000e-3 5.259784037979999e-3
5.614845085010000e-3 5.993442982400000e-3 6.397083578440000e-3 6.827362163920001e-3
7.285967900540000e-3 7.774688351100000e-3 8.295414095980000e-3 8.850143417240000e-3
9.440987027629999e-3 1.007017281800000e-2 1.074005059190000e-2 1.145309675060000e-2
1.221191888690000e-2 1.301926023960000e-2 1.387800395270000e-2 1.479117707760000e-2
1.576195424810000e-2 1.679366094790000e-2 1.788977628310000e-2 1.905393516070000e-2
2.028992976500000e-2 2.160171021100000e-2 2.299338424470000e-2 2.446921584550000e-2
2.603362257780000e-2 2.769117152180000e-2 2.944657360750000e-2 3.130467615750000e-2
3.327045344190000e-2 3.534899502950000e-2 3.754549172030000e-2 3.986521883250000e-2
4.231351661670000e-2 4.489576756969999e-2 4.761737042410000e-2 5.048371060030000e-2
5.350012692300000e-2 5.667187442470000e-2 6.000408309230000e-2 6.350171244940000e-2
6.716950191910000e-2 7.101191697260000e-2 7.503309114089999e-2 7.923676405700000e-2
8.362621579350000e-2 8.820419787640001e-2 9.297286148349999e-2 9.793368347780000e-2
1.030873910770000e-1 1.084338861220000e-1 1.139721700630000e-1 1.197002709670000e-1
1.256151739630000e-1 1.317127567220000e-1 1.379877316220000e-1 1.444335963480000e-1
1.510425946260000e-1 1.578056887140000e-1 1.647125450610000e-1 1.717515341860000e-1
1.789097453230000e-1 1.861730156510000e-1 1.935259729830000e-1 2.009520895740000e-1
2.084337432160000e-1 2.159522800000000e-1 2.234880710250000e-1 2.310205529910000e-1
2.385282400090000e-1 2.459886913030000e-1 2.533784167740000e-1 2.606727000090000e-1
2.678453164530000e-1 2.748681235730000e-1 2.817105004230000e-1 2.883386167360000e-1
2.947145172750000e-1 3.007950165780000e-1 3.065304133780000e-1 3.118630539490000e-1
3.167258002910000e-1 3.210404931950000e-1 3.247165420690000e-1 3.276498224660000e-1
3.297221167010000e-1 3.308013894080000e-1 3.307432419910000e-1 3.293939284860000e-1
3.265953262240000e-1 3.221922190460000e-1 3.160421434150000e-1 3.080278379800000e-1
2.980719897700000e-1 2.861534496500000e-1 2.723233694580000e-1 2.567187904550000e-1
2.395701387470000e-1 2.211980089540000e-1 2.019938730150000e-1 1.823795669260000e-1
1.627427126890000e-1 1.433515407540000e-1 1.242660557270000e-1 1.052882199430000e-1
8.603984811640000e-2 6.628669164690000e-2 4.607670505700000e-2 2.550280636300000e-2
4.667727668140000e-3 -1.631612014900000e-2 -3.732690581250000e-2 -5.823385702940000e-2
-7.889801160560000e-2 -9.917328547049999e-2 -1.189079071140000e-1 -1.379462579350000e-1
-1.561311326210000e-1 -1.733064012530000e-1 -1.893199745370000e-1 -2.040269055550000e-1
-2.172923338050000e-1 -2.289939323690000e-1 -2.390234638430000e-1 -2.472872014630000e-1
-2.537051494060000e-1 -2.582093813890000e-1 -2.607420460970000e-1 -2.612537995750000e-1
-2.597032455620000e-1 -2.560577497990000e-1 -2.502955885210000e-1 -2.424093017350000e-1
-2.324101325650000e-1 -2.203338002090000e-1 -2.062481496380000e-1 -1.902635142140000e-1
-1.725465616460000e-1 -1.533379930860000e-1 -1.329734613550000e-1 -1.119053021510000e-1
-9.071982104960000e-2 -7.014055473480001e-2 -5.100178265400000e-2 -3.416990193870000e-2
-2.042112669890000e-2 -1.030329537990000e-2 -3.950090918610000e-3 -9.009317360859999e-4
-5.228750448770001e-5 0.000000000000000e0 0.000000000000000e0 0.000000000000000e0
0.000000000000000e0 0.000000000000000e0 0.000000000000000e0 0.000000000000000e0
0.000000000000000e0 0.000000000000000e0 0.000000000000000e0 0.000000000000000e0
0.000000000000000e0 0.000000000000000e0 0.000000000000000e0 0.000000000000000e0
0.000000000000000e0 0.000000000000000e0 0.000000000000000e0 0.000000000000000e0
0.000000000000000e0 0.000000000000000e0 0.000000000000000e0 0.000000000000000e0
0.000000000000000e0 0.000000000000000e0 0.000000000000000e0 0.000000000000000e0
0.000000000000000e0 0.000000000000000e0 0.000000000000000e0 0.000000000000000e0
0.000000000000000e0 0.000000000000000e0 0.000000000000000e0 0.000000000000000e0
0.000000000000000e0 0.000000000000000e0 0.000000000000000e0 0.000000000000000e0
0.000000000000000e0 0.000000000000000e0 0.000000000000000e0 0.000000000000000e0
0.000000000000000e0 0.000000000000000e0 0.000000000000000e0 0.000000000000000e0
0.000000000000000e0 0.000000000000000e0 0.000000000000000e0 0.000000000000000e0
0.000000000000000e0 0.000000000000000e0 0.000000000000000e0 0.000000000000000e0
0.000000000000000e0 0.000000000000000e0 0.000000000000000e0 0.000000000000000e0
0.000000000000000e0 0.000000000000000e0 0.000000000000000e0 0.000000000000000e0
0.000000000000000e0 0.000000000000000e0 0.000000000000000e0 0.000000000000000e0
0.000000000000000e0 0.000000000000000e0 0.000000000000000e0 0.000000000000000e0
0.000000000000000e0 0.000000000000000e0 0.000000000000000e0 0.000000000000000e0
0.000000000000000e0 0.000000000000000e0 0.000000000000000e0 0.000000000000000e0
0.000000000000000e0 0.000000000000000e0 0.000000000000000e0 0.000000000000000e0
0.000000000000000e0 0.000000000000000e0 0.000000000000000e0 0.000000000000000e0
0.000000000000000e0 0.000000000000000e0 0.000000000000000e0 0.000000000000000e0
0.000000000000000e0 0.000000000000000e0 0.000000000000000e0 0.000000000000000e0
0.000000000000000e0 0.000000000000000e0 0.000000000000000e0 0.000000000000000e0
0.000000000000000e0 0.000000000000000e0 0.000000000000000e0 0.000000000000000e0
0.000000000000000e0 0.000000000000000e0 0.000000000000000e0 0.000000000000000e0
0.000000000000000e0 0.000000000000000e0 0.000000000000000e0 0.000000000000000e0
0.000000000000000e0 0.000000000000000e0 0.000000000000000e0 0.000000000000000e0
0.000000000000000e0 0.000000000000000e0 0.000000000000000e0 0.000000000000000e0
0.000000000000000e0 0.000000000000000e0 0.000000000000000e0 0.000000000000000e0
0.000000000000000e0 0.000000000000000e0 0.000000000000000e0 0.000000000000000e0
0.000000000000000e0 0.000000000000000e0 0.000000000000000e0 0.000000000000000e0
0.000000000000000e0 0.000000000000000e0 0.000000000000000e0 0.000000000000000e0
0.000000000000000e0 0.000000000000000e0 0.000000000000000e0 0.000000000000000e0
0.000000000000000e0 0.000000000000000e0 0.000000000000000e0 0.000000000000000e0
0.000000000000000e0 0.000000000000000e0 0.000000000000000e0 0.000000000000000e0
0.000000000000000e0 0.000000000000000e0 0.000000000000000e0 0.000000000000000e0
0.000000000000000e0 0.000000000000000e0 0.000000000000000e0 0.000000000000000e0
0.000000000000000e0 0.000000000000000e0 0.000000000000000e0 0.000000000000000e0
0.000000000000000e0 0.000000000000000e0 0.000000000000000e0 0.000000000000000e0
0.000000000000000e0 0.000000000000000e0 0.000000000000000e0 0.000000000000000e0
0.000000000000000e0 0.000000000000000e0 0.000000000000000e0 0.000000000000000e0
0.000000000000000e0 0.000000000000000e0 0.000000000000000e0 0.000000000000000e0
0.000000000000000e0 0.000000000000000e0 0.000000000000000e0 0.000000000000000e0
0.000000000000000e0 0.000000000000000e0 0.000000000000000e0 0.000000000000000e0
0.000000000000000e0 0.000000000000000e0 0.000000000000000e0 0.000000000000000e0
0.000000000000000e0 0.000000000000000e0 0.000000000000000e0 0.000000000000000e0
0.000000000000000e0 0.000000000000000e0 0.000000000000000e0 0.000000000000000e0
0.000000000000000e0 0.000000000000000e0 0.000000000000000e0 0.000000000000000e0
0.000000000000000e0 0.000000000000000e0 0.000000000000000e0 0.000000000000000e0
0.000000000000000e0 0.000000000000000e0 0.000000000000000e0 0.000000000000000e0
0.000000000000000e0 0.000000000000000e0 0.000000000000000e0 0.000000000000000e0
0.000000000000000e0 0.000000000000000e0 0.000000000000000e0 0.000000000000000e0
0.000000000000000e0 0.000000000000000e0 0.000000000000000e0 0.000000000000000e0
0.000000000000000e0 0.000000000000000e0 0.000000000000000e0 0.000000000000000e0
0.000000000000000e0 0.000000000000000e0 0.000000000000000e0 0.000000000000000e0
0.000000000000000e0 0.000000000000000e0 0.000000000000000e0 0.000000000000000e0
0.000000000000000e0 0.000000000000000e0 0.000000000000000e0 0.000000000000000e0
0.000000000000000e0 0.000000000000000e0 0.000000000000000e0 0.000000000000000e0
0.000000000000000e0 0.000000000000000e0 0.000000000000000e0 0.000000000000000e0
0.000000000000000e0 0.000000000000000e0 0.000000000000000e0 0.000000000000000e0
0.000000000000000e0 0.000000000000000e0 0.000000000000000e0 0.000000000000000e0
0.000000000000000e0 0.000000000000000e0 0.000000000000000e0 0.000000000000000e0
0.000000000000000e0 0.000000000000000e0 0.000000000000000e0 0.000000000000000e0
0.000000000000000e0 0.000000000000000e0 0.000000000000000e0 0.000000000000000e0
0.000000000000000e0 0.000000000000000e0 0.000000000000000e0 0.000000000000000e0
0.000000000000000e0 0.000000000000000e0 0.000000000000000e0 0.000000000000000e0
0.000000000000000e0 0.000000000000000e0 0.000000000000000e0 0.000000000000000e0
0.000000000000000e0 0.000000000000000e0 0.000000000000000e0 0.000000000000000e0
0.000000000000000e0 0.000000000000000e0 0.000000000000000e0
</PP_QIJ.2.6>
<PP_QIJ.3.3 first_index="3" second_index="3" composite_index="6">
0.000000000000000e0 6.706179056900002e-13 2.727743544700000e-12 6.241292841089999e-12
1.128393672910000e-11 1.793120100790000e-11 2.626156969100001e-11 3.635659196730001e-11
4.830099290209999e-11 6.218278800300001e-11 7.809340178789999e-11 9.612779048459998e-11
1.163845690180000e-10 1.389661424170000e-10 1.639788418000000e-10 1.915330650990001e-10
2.217434226850000e-10 2.547288880500000e-10 2.906129537380000e-10 3.295237926940001e-10
3.715944252180000e-10 4.169628917199999e-10 4.657724314680000e-10 5.181716675460000e-10
5.743147982309998e-10 6.343617949760000e-10 6.984786073000000e-10 7.668373747530001e-10
8.396166462249999e-10 9.170016068370000e-10 9.991843127020001e-10 1.086363933830000e-9
1.178747005360000e-9 1.276547687530000e-9 1.379988034700000e-9 1.489298273470000e-9
1.604717090650000e-9 1.726491931030000e-9 1.854879305330001e-9 1.990145109100000e-9
2.132564952230000e-9 2.282424500180000e-9 2.440019826680000e-9 2.605657778750000e-9
2.779656354300000e-9 2.962345092670000e-9 3.154065478600000e-9 3.355171360260000e-9
3.566029381469999e-9 3.787019428920000e-9 4.018535094740000e-9 4.260984155000000e-9
4.514789064640000e-9 4.780387469370000e-9 5.058232735079999e-9 5.348794496079999e-9
5.652559221050001e-9 5.970030799329999e-9 6.301731147000000e-9 6.648200833990003e-9
7.009999732159999e-9 7.387707686360001e-9 7.781925207980001e-9 8.193274192500001e-9
8.622398661460002e-9 9.069965530390000e-9 9.536665402190001e-9 1.002321338850000e-8
1.053034995920000e-8 1.105884181980000e-8 1.160948282100000e-8 1.218309489710000e-8
1.278052903880000e-8 1.340266629680000e-8 1.405041882240000e-8 1.472473094190000e-8
1.542658026780000e-8 1.615697884940000e-8 1.691697436160000e-8 1.770765133400000e-8
1.853013242370000e-8 1.938557972940000e-8 2.027519615310000e-8 2.120022680510000e-8
2.216196046070000e-8 2.316173106250000e-8 2.420091927870000e-8 2.528095411040000e-8
2.640331455630000e-8 2.756953133380000e-8 2.878118865819999e-8 3.003992608299999e-8
3.134744040450000e-8 3.270548762789999e-8 3.411588500390000e-8 3.558051313330001e-8
3.710131814520000e-8 3.868031394400000e-8 4.031958454240001e-8 4.202128646400000e-8
4.378765123510001e-8 4.562098795810000e-8 4.752368597300000e-8 4.949821761169999e-8
5.154714104279999e-8 5.367310321540002e-8 5.587884290410000e-8 5.816719385630000e-8
6.054108804560000e-8 6.300355904130001e-8 6.555774548380001e-8 6.820689468989999e-8
7.095436636840001e-8 7.380363647289999e-8 7.675830117930000e-8 7.982208100399999e-8
8.299882505270000e-8 8.629251542940001e-8 8.970727177959999e-8 9.324735599759999e-8
9.691717709269998e-8 1.007212962170000e-7 1.046644318710000e-7 1.087514652820000e-7
1.129874459610000e-7 1.173775974620000e-7 1.219273233240000e-7 1.266422132210000e-7
1.315280493240000e-7 1.365908128710000e-7 1.418366909670000e-7 1.472720836180000e-7
1.529036109980000e-7 1.587381209600000e-7 1.647826968140000e-7 1.710446653630000e-7
1.775316052090000e-7 1.842513553450000e-7 1.912120240450000e-7 1.984219980400000e-7
2.058899520290000e-7 2.136248584880000e-7 2.216359978320001e-7 2.299329689100000e-7
2.385256998780000e-7 2.474244593950000e-7 2.566398682560000e-7 2.661829113910001e-7
2.760649502610000e-7 2.862977357029999e-7 2.968934211900000e-7 3.078645765480000e-7
3.192242021470000e-7 3.309857435640000e-7 3.431631067330000e-7 3.557706736500000e-7
3.688233185640001e-7 3.823364247360000e-7 3.963259017929999e-7 4.108082036220000e-7
4.258003469080000e-7 4.413199302990000e-7 4.573851541960000e-7 4.740148412400000e-7
4.912284574909998e-7 5.090461343229999e-7 5.274886910430000e-7 5.465776583060000e-7
5.663353023350000e-7 5.867846498890001e-7 6.079495141830000e-7 6.298545216160000e-7
6.525251394060000e-7 6.759877042110000e-7 7.002694516620000e-7 7.253985469790002e-7
7.514041164880001e-7 7.783162803720001e-7 8.061661864289999e-7 8.349860449550000e-7
8.648091649199998e-7 8.956699912649999e-7 9.276041434959998e-7 9.606484556500000e-7
9.948410174520001e-7 1.030221217080000e-6 1.066829785220000e-6 1.104708840680000e-6
1.143901937520000e-6 1.184454113810000e-6 1.226411942030000e-6 1.269823581160000e-6
1.314738830550000e-6 1.361209185610000e-6 1.409287895420000e-6 1.459030022190000e-6
1.510492502890000e-6 1.563734212790000e-6 1.618816031300000e-6 1.675800909980000e-6
1.734753942790000e-6 1.795742438880000e-6 1.858835997640000e-6 1.924106586450000e-6
1.991628621000000e-6 2.061479048310000e-6 2.133737432550000e-6 2.208486043910000e-6
2.285809950180000e-6 2.365797111720000e-6 2.448538479540000e-6 2.534128096560000e-6
2.622663202550000e-6 2.714244342350000e-6 2.808975477970001e-6 2.906964104320000e-6
3.008321368910000e-6 3.113162195719999e-6 3.221605412820000e-6 3.333773884969999e-6
3.449794650059999e-6 3.569799060550000e-6 3.693922929509999e-6 3.822306681640000e-6
3.955095509400000e-6 4.092439534300000e-6 4.234493973760001e-6 4.381419313660000e-6
4.533381486239999e-6 4.690552054790000e-6 4.853108403689999e-6 5.021233935610000e-6
5.195118274750000e-6 5.374957477310001e-6 5.560954248790000e-6 5.753318168980000e-6
5.952265923880001e-6 6.158021546040001e-6 6.370816662660000e-6 6.590890752030000e-6
6.818491408670000e-6 7.053874617610001e-6 7.297305036869998e-6 7.549056290999999e-6
7.809411273090000e-6 8.078662457400000e-6 8.357112223010001e-6 8.645073187079999e-6
8.942868550420000e-6 9.250832454059999e-6 9.569310347780000e-6 9.898659371240001e-6
1.023924874740000e-5 1.059146018930000e-5 1.095568832060000e-5 1.133234111020000e-5
1.172184032030000e-5 1.212462197120000e-5 1.254113681990000e-5 1.297185085530000e-5
1.341724581090000e-5 1.387781969170000e-5 1.435408732210000e-5 1.484658090900000e-5
1.535585062610000e-5 1.588246521520000e-5 1.642701260890000e-5 1.699010057360000e-5
1.757235737370000e-5 1.817443245720000e-5 1.879699716470000e-5 1.944074546190000e-5
2.010639469470000e-5 2.079468637080000e-5 2.150638696630000e-5 2.224228875900000e-5
2.300321068830000e-5 2.378999924310000e-5 2.460352938160000e-5 2.544470547650000e-5
2.631446229420000e-5 2.721376600590000e-5 2.814361522890000e-5 2.910504210590000e-5
3.009911341380000e-5 3.112693171430000e-5 3.218963653710000e-5 3.328840560310000e-5
3.442445608760000e-5 3.559904592160001e-5 3.681347513910000e-5 3.806908726130000e-5
3.936727073010000e-5 4.070946038810000e-5 4.209713899820001e-5 4.353183882000000e-5
4.501514323029999e-5 4.654868839910001e-5 4.813416501210001e-5 4.977332005379999e-5
5.146795864200000e-5 5.321994592350000e-5 5.503120902140001e-5 5.690373905180000e-5
5.883959319610000e-5 6.084089683860001e-5 6.290984577150001e-5 6.504870846690000e-5
6.725982841100000e-5 6.954562652040000e-5 7.190860362250000e-5 7.435134301339998e-5
7.687651309089999e-5 7.948687006590001e-5 8.218526075319998e-5 8.497462544900001e-5
8.785800088099998e-5 9.083852325600001e-5 9.391943139169999e-5 9.710406992699999e-5
1.003958926440000e-4 1.037984658650000e-4 1.073154719540000e-4 1.109507129080000e-4
1.147081140600000e-4 1.185917278650000e-4 1.226057377990000e-4 1.267544623600000e-4
1.310423591730000e-4 1.354740292050000e-4 1.400542210770000e-4 1.447878354980000e-4
1.496799298060000e-4 1.547357226200000e-4 1.599605985940000e-4 1.653601133070000e-4
1.709399982420000e-4 1.767061658990000e-4 1.826647149970000e-4 1.888219358280000e-4
1.951843156770000e-4 2.017585444050000e-4 2.085515200910000e-4 2.155703548230000e-4
2.228223805860000e-4 2.303151552520000e-4 2.380564686620000e-4 2.460543488330000e-4
2.543170682380000e-4 2.628531501880000e-4 2.716713752900000e-4 2.807807879999999e-4
2.901907032200000e-4 2.999107129940000e-4 3.099506932340001e-4 3.203208105049999e-4
3.310315288370000e-4 3.420936165560000e-4 3.535181531460000e-4 3.653165360900000e-4
3.775004876650000e-4 3.900820617590000e-4 4.030736505590000e-4 4.164879912190001e-4
4.303381723409999e-4 4.446376404610000e-4 4.594002061980000e-4 4.746400503650000e-4
4.903717297639999e-4 5.066101827650000e-4 5.233707345660000e-4 5.406691020880000e-4
5.585213985110000e-4 5.769441373589999e-4 5.959542360580000e-4 6.155690189770000e-4
6.358062197960001e-4 6.566839832130000e-4 6.782208658650001e-4 7.004358364410001e-4
7.233482747030000e-4 7.469779697079999e-4 7.713451166460001e-4 7.964703126110000e-4
8.223745508980000e-4 8.490792137669999e-4 8.766060637240001e-4 9.049772328400001e-4
9.342152101989999e-4 9.643428272089999e-4 9.953832406520000e-4 1.027359913090000e-3
1.060296590730000e-3 1.094217278170000e-3 1.129146210050000e-3 1.165107819220000e-3
1.202126701070000e-3 1.240227574030000e-3 1.279435235360000e-3 1.319774512540000e-3
1.361270209320000e-3 1.403947046480000e-3 1.447829596400000e-3 1.492942211430000e-3
1.539308945400000e-3 1.586953467580000e-3 1.635898968750000e-3 1.686168058780000e-3
1.737782654800000e-3 1.790763859750000e-3 1.845131830050000e-3 1.900905632050000e-3
1.958103086140000e-3 2.016740597850000e-3 2.076832974690000e-3 2.138393228170000e-3
2.201432359440000e-3 2.265959127710000e-3 2.331979800210000e-3 2.399497882200000e-3
2.468513825900000e-3 2.539024716580001e-3 2.611023934660000e-3 2.684500791570000e-3
2.759440138150000e-3 2.835821943400000e-3 2.913620841810000e-3 2.992805646590000e-3
3.073338827580000e-3 3.155175950350000e-3 3.238265074600000e-3 3.322546109150000e-3
3.407950120480000e-3 3.494398591670000e-3 3.581802629440000e-3 3.670062114399999e-3
3.759064792869999e-3 3.848685304660000e-3 3.938784144140000e-3 4.029206550160000e-3
4.119781319920000e-3 4.210319543000000e-3 4.300613250020000e-3 4.390433971349999e-3
4.479531199820000e-3 4.567630753380000e-3 4.654433029440000e-3 4.739611147360001e-3
4.822808970870001e-3 4.903639004910000e-3 4.981680158870000e-3 5.056475370279999e-3
5.127529080910000e-3 5.194304557170000e-3 5.256221047810000e-3 5.312650770080001e-3
5.362915716040000e-3 5.406284271190000e-3 5.441967635320001e-3 5.469116038460000e-3
5.486814740450000e-3 5.494079809360000e-3 5.489853664640000e-3 5.473000379989999e-3
5.442300736040000e-3 5.396447013290000e-3 5.334037519940001e-3 5.253570842580000e-3
5.153439817930000e-3 5.031925214720000e-3 4.887189123770000e-3 4.717268048939999e-3
4.520065698860000e-3 4.293345476310000e-3 4.034722665800000e-3 3.741656323330000e-3
3.411440871140000e-3 3.041197408040000e-3 2.627864744610000e-3 2.168190178970000e-3
1.658720032380000e-3 1.095789968360000e-3 4.755151263480000e-4 -2.062198991370000e-4
-9.537711850770002e-4 -1.771745668630000e-3 -2.665011336050000e-3 -3.638707346010000e-3
-4.698254011850000e-3 -5.849362547060000e-3 -7.098044484610000e-3 -8.450620643259999e-3
-9.913729523210000e-3 -1.149433497900000e-2 -1.319973301130000e-2 -1.503755749970000e-2
-1.701578467290000e-2 -1.914273610540000e-2 -2.142707998650000e-2 -2.387783041540000e-2
-2.650434441680000e-2 -2.931631638140000e-2 -3.232376958510000e-2 -3.553704442900000e-2
-3.896678301900000e-2 -4.262390966460000e-2 -4.651960688140000e-2 -5.066528642780001e-2
-5.507255491680000e-2 -5.975317351779999e-2 -6.471901124680000e-2 -6.998199135959999e-2
-7.555403034859999e-2 -8.144696906330001e-2 -8.767249550700001e-2 -9.424205888249999e-2
-1.011667745260000e-1 -1.084573194280000e-1 -1.161238181340000e-1 -1.241757189110000e-1
-1.326216602210000e-1 -1.414693276790000e-1 -1.507253018650000e-1 -1.603948975670000e-1
-1.704819952870000e-1 -1.809888660700000e-1 -1.919159910710000e-1 -2.032618775190000e-1
-2.150228731220000e-1 -2.271929812750000e-1 -2.397636797630000e-1 -2.527237459770000e-1
-2.660590919370000e-1 -2.797526126320000e-1 -2.937840513000000e-1 -3.081298852930000e-1
-3.227632359650000e-1 -3.376538056710000e-1 -3.527678442760000e-1 -3.680681466370000e-1
-3.835140811460000e-1 -3.990616476840000e-1 -4.146635610710000e-1 -4.302693534430000e-1
-4.458254857380000e-1 -4.612754549500000e-1 -4.765598798740000e-1 -4.916165441260000e-1
-5.063803715220000e-1 -5.207833059019999e-1 -5.347540659690000e-1 -5.482177464890000e-1
-5.610952415230001e-1 -5.733024746890000e-1 -5.847494376600000e-1 -5.953390631510000e-1
-6.049659950210000e-1 -6.135153677400000e-1 -6.208617726120000e-1 -6.268686689520000e-1
-6.313885940870000e-1 -6.342646305250001e-1 -6.353336909319999e-1 -6.344322586910000e-1
-6.314052360310000e-1 -6.261184402260001e-1 -6.184749509490000e-1 -6.084347957669999e-1
-5.960361324190000e-1 -5.814137998830001e-1 -5.648073536180000e-1 -5.465447328130000e-1
-5.269784549020001e-1 -5.063551438040000e-1 -4.848000881730000e-1 -4.624318043040000e-1
-4.393757819870000e-1 -4.157634245110000e-1 -3.917307612150000e-1 -3.674169763660000e-1
-3.429628103790000e-1 -3.185088286660000e-1 -2.941936580220000e-1 -2.701522308830000e-1
-2.465142025090000e-1 -2.234026415770000e-1 -2.009332125300000e-1 -1.792139563140000e-1
-1.583458151900000e-1 -1.384238160180000e-1 -1.195387324240000e-1 -1.017787320030000e-1
-8.523044408330000e-2 -6.997877513370000e-2 -5.610505350950000e-2 -4.368334023949999e-2
-3.277517136580000e-2 -2.342318584890000e-2 -1.564419920560000e-2 -9.422164476990000e-3
-4.701438807590000e-3 -1.380885974790000e-3 6.902212210379998e-4 1.712874414720000e-3
1.933170120680000e-3 1.628308125230000e-3 1.080816976130000e-3 5.397432178360000e-4
1.723942803490000e-4 2.101423382420000e-5 8.329750743519998e-8 0.000000000000000e0
0.000000000000000e0 0.000000000000000e0 0.000000000000000e0 0.000000000000000e0
0.000000000000000e0 0.000000000000000e0 0.000000000000000e0 0.000000000000000e0
0.000000000000000e0 0.000000000000000e0 0.000000000000000e0 0.000000000000000e0
0.000000000000000e0 0.000000000000000e0 0.000000000000000e0 0.000000000000000e0
0.000000000000000e0 0.000000000000000e0 0.000000000000000e0 0.000000000000000e0
0.000000000000000e0 0.000000000000000e0 0.000000000000000e0 0.000000000000000e0
0.000000000000000e0 0.000000000000000e0 0.000000000000000e0 0.000000000000000e0
0.000000000000000e0 0.000000000000000e0 0.000000000000000e0 0.000000000000000e0
0.000000000000000e0 0.000000000000000e0 0.000000000000000e0 0.000000000000000e0
0.000000000000000e0 0.000000000000000e0 0.000000000000000e0 0.000000000000000e0
0.000000000000000e0 0.000000000000000e0 0.000000000000000e0 0.000000000000000e0
0.000000000000000e0 0.000000000000000e0 0.000000000000000e0 0.000000000000000e0
0.000000000000000e0 0.000000000000000e0 0.000000000000000e0 0.000000000000000e0
0.000000000000000e0 0.000000000000000e0 0.000000000000000e0 0.000000000000000e0
0.000000000000000e0 0.000000000000000e0 0.000000000000000e0 0.000000000000000e0
0.000000000000000e0 0.000000000000000e0 0.000000000000000e0 0.000000000000000e0
0.000000000000000e0 0.000000000000000e0 0.000000000000000e0 0.000000000000000e0
0.000000000000000e0 0.000000000000000e0 0.000000000000000e0 0.000000000000000e0
0.000000000000000e0 0.000000000000000e0 0.000000000000000e0 0.000000000000000e0
0.000000000000000e0 0.000000000000000e0 0.000000000000000e0 0.000000000000000e0
0.000000000000000e0 0.000000000000000e0 0.000000000000000e0 0.000000000000000e0
0.000000000000000e0 0.000000000000000e0 0.000000000000000e0 0.000000000000000e0
0.000000000000000e0 0.000000000000000e0 0.000000000000000e0 0.000000000000000e0
0.000000000000000e0 0.000000000000000e0 0.000000000000000e0 0.000000000000000e0
0.000000000000000e0 0.000000000000000e0 0.000000000000000e0 0.000000000000000e0
0.000000000000000e0 0.000000000000000e0 0.000000000000000e0 0.000000000000000e0
0.000000000000000e0 0.000000000000000e0 0.000000000000000e0 0.000000000000000e0
0.000000000000000e0 0.000000000000000e0 0.000000000000000e0 0.000000000000000e0
0.000000000000000e0 0.000000000000000e0 0.000000000000000e0 0.000000000000000e0
0.000000000000000e0 0.000000000000000e0 0.000000000000000e0 0.000000000000000e0
0.000000000000000e0 0.000000000000000e0 0.000000000000000e0 0.000000000000000e0
0.000000000000000e0 0.000000000000000e0 0.000000000000000e0 0.000000000000000e0
0.000000000000000e0 0.000000000000000e0 0.000000000000000e0 0.000000000000000e0
0.000000000000000e0 0.000000000000000e0 0.000000000000000e0 0.000000000000000e0
0.000000000000000e0 0.000000000000000e0 0.000000000000000e0 0.000000000000000e0
0.000000000000000e0 0.000000000000000e0 0.000000000000000e0 0.000000000000000e0
0.000000000000000e0 0.000000000000000e0 0.000000000000000e0 0.000000000000000e0
0.000000000000000e0 0.000000000000000e0 0.000000000000000e0 0.000000000000000e0
0.000000000000000e0 0.000000000000000e0 0.000000000000000e0 0.000000000000000e0
0.000000000000000e0 0.000000000000000e0 0.000000000000000e0 0.000000000000000e0
0.000000000000000e0 0.000000000000000e0 0.000000000000000e0 0.000000000000000e0
0.000000000000000e0 0.000000000000000e0 0.000000000000000e0 0.000000000000000e0
0.000000000000000e0 0.000000000000000e0 0.000000000000000e0 0.000000000000000e0
0.000000000000000e0 0.000000000000000e0 0.000000000000000e0 0.000000000000000e0
0.000000000000000e0 0.000000000000000e0 0.000000000000000e0 0.000000000000000e0
0.000000000000000e0 0.000000000000000e0 0.000000000000000e0 0.000000000000000e0
0.000000000000000e0 0.000000000000000e0 0.000000000000000e0 0.000000000000000e0
0.000000000000000e0 0.000000000000000e0 0.000000000000000e0 0.000000000000000e0
0.000000000000000e0 0.000000000000000e0 0.000000000000000e0 0.000000000000000e0
0.000000000000000e0 0.000000000000000e0 0.000000000000000e0 0.000000000000000e0
0.000000000000000e0 0.000000000000000e0 0.000000000000000e0 0.000000000000000e0
0.000000000000000e0 0.000000000000000e0 0.000000000000000e0 0.000000000000000e0
0.000000000000000e0 0.000000000000000e0 0.000000000000000e0 0.000000000000000e0
0.000000000000000e0 0.000000000000000e0 0.000000000000000e0 0.000000000000000e0
0.000000000000000e0 0.000000000000000e0 0.000000000000000e0 0.000000000000000e0
0.000000000000000e0 0.000000000000000e0 0.000000000000000e0 0.000000000000000e0
0.000000000000000e0 0.000000000000000e0 0.000000000000000e0 0.000000000000000e0
0.000000000000000e0 0.000000000000000e0 0.000000000000000e0 0.000000000000000e0
0.000000000000000e0 0.000000000000000e0 0.000000000000000e0 0.000000000000000e0
0.000000000000000e0 0.000000000000000e0 0.000000000000000e0 0.000000000000000e0
0.000000000000000e0 0.000000000000000e0 0.000000000000000e0 0.000000000000000e0
0.000000000000000e0 0.000000000000000e0 0.000000000000000e0 0.000000000000000e0
0.000000000000000e0 0.000000000000000e0 0.000000000000000e0 0.000000000000000e0
0.000000000000000e0 0.000000000000000e0 0.000000000000000e0 0.000000000000000e0
0.000000000000000e0 0.000000000000000e0 0.000000000000000e0 0.000000000000000e0
0.000000000000000e0 0.000000000000000e0 0.000000000000000e0 0.000000000000000e0
0.000000000000000e0 0.000000000000000e0 0.000000000000000e0 0.000000000000000e0
0.000000000000000e0 0.000000000000000e0 0.000000000000000e0 0.000000000000000e0
0.000000000000000e0 0.000000000000000e0 0.000000000000000e0 0.000000000000000e0
0.000000000000000e0 0.000000000000000e0 0.000000000000000e0 0.000000000000000e0
0.000000000000000e0 0.000000000000000e0 0.000000000000000e0 0.000000000000000e0
0.000000000000000e0 0.000000000000000e0 0.000000000000000e0
</PP_QIJ.3.3>
<PP_QIJ.3.4 first_index="3" second_index="4" composite_index="9">
0.000000000000000e0 5.512306107300001e-12 2.242134794530001e-11 5.130181637129999e-11
9.275104771890000e-11 1.473898445830000e-10 2.158633253180000e-10 2.988418032390000e-10
3.970216965540001e-10 5.111264700680000e-10 6.419076097700000e-10 7.901456314279999e-10
9.566511243459999e-10 1.142265831520000e-9 1.347863767420000e-9 1.574352374700000e-9
1.822673721149999e-9 2.093805738370000e-9 2.388763503370001e-9 2.708600564930000e-9
3.054410315829999e-9 3.427327412910000e-9 3.828529246329999e-9 4.259237459849999e-9
4.720719523870000e-9 5.214290362959999e-9 5.741314039899999e-9 6.303205497910001e-9
6.901432363400000e-9 7.537516811040001e-9 8.213037493380002e-9 8.929631537240002e-9
9.688996609189997e-9 1.049289305240000e-8 1.134314609730000e-8 1.224164814880000e-8
1.319036115230000e-8 1.419131904130000e-8 1.524663027000000e-8 1.635848043290000e-8
1.752913497460000e-8 1.876094199350000e-8 2.005633514200000e-8 2.141783662620000e-8
2.284806031010000e-8 2.434971492530000e-8 2.592560739210000e-8 2.757864625500001e-8
2.931184523620000e-8 3.112832691119999e-8 3.303132651100000e-8 3.502419585529999e-8
3.711040742080001e-8 3.929355854900001e-8 4.157737579960000e-8 4.396571945160000e-8
4.646258816140000e-8 4.907212377910000e-8 5.179861633120000e-8 5.464650917310000e-8
5.762040432039999e-8 6.072506796110000e-8 6.396543615840001e-8 6.734662074789998e-8
7.087391543870001e-8 7.455280212139998e-8 7.838895739470000e-8 8.238825931400001e-8
8.655679437149999e-8 9.090086471730000e-8 9.542699562409997e-8 1.001419432120000e-7
1.050527024340000e-7 1.101665153370000e-7 1.154908796070000e-7 1.210335574000000e-7
1.268025844870000e-7 1.328062796970000e-7 1.390532546980000e-7 1.455524241010000e-7
1.523130159150000e-7 1.593445823580000e-7 1.666570110420000e-7 1.742605365300000e-7
1.821657522990000e-7 1.903836231060001e-7 1.989254977780000e-7 2.078031224370000e-7
2.170286541819999e-7 2.266146752310000e-7 2.365742075520000e-7 2.469207279940000e-7
2.576681839240000e-7 2.688310094140001e-7 2.804241419690000e-7 2.924630398299999e-7
3.049636998630000e-7 3.179426760710000e-7 3.314170987170000e-7 3.454046941220001e-7
3.599238051220000e-7 3.749934122279999e-7 3.906331555120000e-7 4.068633572280000e-7
4.237050452190000e-7 4.411799771100000e-7 4.593106653340000e-7 4.781204030010000e-7
4.976332906630000e-7 5.178742639750000e-7 5.388691223170001e-7 5.606445583679999e-7
5.832281887130000e-7 6.066485854750000e-7 6.309353090289999e-7 6.561189418300001e-7
6.822311234049999e-7 7.093045865090000e-7 7.373731945450002e-7 7.664719802340000e-7
7.966371856120000e-7 8.279063033910001e-7 8.603181197169999e-7 8.939127583960000e-7
9.287317266210000e-7 9.648179622489998e-7 1.002215882690000e-6 1.040971435490000e-6
1.081132150550000e-6 1.122747194250000e-6 1.165867425270000e-6 1.210545452470000e-6
1.256835694550000e-6 1.304794441940000e-6 1.354479920640000e-6 1.405952358310000e-6
1.459274052560000e-6 1.514509441640000e-6 1.571725177450000e-6 1.630990201040000e-6
1.692375820770000e-6 1.755955793010000e-6 1.821806405660000e-6 1.890006564450000e-6
1.960637882250000e-6 2.033784771360000e-6 2.109534538950000e-6 2.187977485720000e-6
2.269207008000000e-6 2.353319703180000e-6 2.440415478880000e-6 2.530597665680000e-6
2.623973133820000e-6 2.720652413760000e-6 2.820749820860000e-6 2.924383584360000e-6
3.031675980640000e-6 3.142753471120001e-6 3.257746844730000e-6 3.376791365300000e-6
3.500026923940001e-6 3.627598196570000e-6 3.759654806849999e-6 3.896351494569999e-6
4.037848289850000e-6 4.184310693160000e-6 4.335909861539999e-6 4.492822801120000e-6
4.655232566080000e-6 4.823328464580000e-6 4.997306271459999e-6 5.177368448249999e-6
5.363724370740001e-6 5.556590564090000e-6 5.756190946140000e-6 5.962757078710000e-6
6.176528427759999e-6 6.397752632070000e-6 6.626685781249999e-6 6.863592703120000e-6
7.108747260790000e-6 7.362432659900000e-6 7.624941766310000e-6 7.896577434409999e-6
8.177652846830002e-6 8.468491865410000e-6 8.769429394280001e-6 9.080811755169998e-6
9.402997075470001e-6 9.736355689459998e-6 1.008127055320000e-5 1.043813767320000e-5
1.080736655050000e-5 1.118938063850000e-5 1.158461781740000e-5 1.199353088430000e-5
1.241658806000000e-5 1.285427351290000e-5 1.330708790110000e-5 1.377554893180000e-5
1.426019194130000e-5 1.476157049320000e-5 1.528025699760000e-5 1.581684335130000e-5
1.637194159960000e-5 1.694618462030000e-5 1.754022683160000e-5 1.815474492270000e-5
1.879043861120000e-5 1.944803142380000e-5 2.012827150560000e-5 2.083193245530000e-5
2.155981418960000e-5 2.231274383660000e-5 2.309157665950000e-5 2.389719701160000e-5
2.473051932390000e-5 2.559248912540000e-5 2.648408409949999e-5 2.740631517440000e-5
2.836022765190000e-5 2.934690237369999e-5 3.036745692720000e-5 3.142304689270000e-5
3.251486713250000e-5 3.364415312350000e-5 3.481218233540000e-5 3.602027565530000e-5
3.726979886070001e-5 3.856216414209999e-5 3.989883167780000e-5 4.128131126130000e-5
4.271116398450000e-5 4.419000397720001e-5 4.571950020670000e-5 4.730137833650000e-5
4.893742264990000e-5 5.062947803740000e-5 5.237945205200000e-5 5.418931703370000e-5
5.606111230670000e-5 5.799694644940000e-5 5.999899964390000e-5 6.206952610160000e-5
6.421085657410000e-5 6.642540094699999e-5 6.871565092209999e-5 7.108418279080000e-5
7.353366030080000e-5 7.606683761979999e-5 7.868656239959999e-5 8.139577894410001e-5
8.419753148380000e-5 8.709496756180000e-5 9.009134153380000e-5 9.319001818609999e-5
9.639447647739999e-5 9.970831340499998e-5 1.031352480030000e-4 1.066791254770000e-4
1.103439214730000e-4 1.141337464980000e-4 1.180528504880000e-4 1.221056275210000e-4
1.262966207060000e-4 1.306305272200000e-4 1.351122035320000e-4 1.397466707830000e-4
1.445391203700000e-4 1.494949197000000e-4 1.546196181500000e-4 1.599189532190000e-4
1.653988568990000e-4 1.710654622470000e-4 1.769251101900000e-4 1.829843565530000e-4
1.892499793270000e-4 1.957289861820000e-4 2.024286222280000e-4 2.093563780460000e-4
2.165199979820000e-4 2.239274887230000e-4 2.315871281650000e-4 2.395074745690000e-4
2.476973760440000e-4 2.561659803220000e-4 2.649227448900000e-4 2.739774474430000e-4
2.833401966940000e-4 2.930214435520000e-4 3.030319926650000e-4 3.133830143630000e-4
3.240860569930000e-4 3.351530596650000e-4 3.465963654410000e-4 3.584287349460000e-4
3.706633604520000e-4 3.833138804180000e-4 3.963943945380000e-4 4.099194792680000e-4
4.239042038930000e-4 4.383641471130001e-4 4.533154142060000e-4 4.687746547380001e-4
4.847590808860000e-4 5.012864863640000e-4 5.183752659720000e-4 5.360444358110000e-4
5.543136541689999e-4 5.732032430869999e-4 5.927342106630000e-4 6.129282740840000e-4
6.338078834280001e-4 6.553962462559999e-4 6.777173530220000e-4 7.007960033180000e-4
7.246578329970000e-4 7.493293421909999e-4 7.748379242450000e-4 8.012118956349999e-4
8.284805268369999e-4 8.566740742399999e-4 8.858238131029999e-4 9.159620715990000e-4
9.471222659690000e-4 9.793389368420000e-4 1.012647786750000e-3 1.047085718840000e-3
1.082690876900000e-3 1.119502686680000e-3 1.157561898530000e-3 1.196910631450000e-3
1.237592418600000e-3 1.279652254230000e-3 1.323136642230000e-3 1.368093646110000e-3
1.414572940740000e-3 1.462625865690000e-3 1.512305480290000e-3 1.563666620480000e-3
1.616765957470000e-3 1.671662058300000e-3 1.728415448360000e-3 1.787088675820000e-3
1.847746378220000e-3 1.910455351070000e-3 1.975284618760000e-3 2.042305507560000e-3
2.111591721059999e-3 2.183219417880000e-3 2.257267291910000e-3 2.333816654960000e-3
2.412951522100000e-3 2.494758699570000e-3 2.579327875430000e-3 2.666751713070000e-3
2.757125947520000e-3 2.850549484790000e-3 2.947124504150000e-3 3.046956563600000e-3
3.150154708590000e-3 3.256831583820000e-3 3.367103548630000e-3 3.481090795670000e-3
3.598917473260000e-3 3.720711811110000e-3 3.846606250120000e-3 3.976737575600000e-3
4.111247054610000e-3 4.250280577180000e-3 4.393988801570000e-3 4.542527303740000e-3
4.696056731030001e-3 4.854742960040000e-3 5.018757259130000e-3 5.188276455210000e-3
5.363483105220000e-3 5.544565672220000e-3 5.731718706210001e-3 5.925143029699999e-3
6.125045928390001e-3 6.331641346410000e-3 6.545150087000000e-3 6.765800017930000e-3
6.993826282229999e-3 7.229471514170001e-3 7.472986060190000e-3 7.724628205370000e-3
7.984664405080000e-3 8.253369521979998e-3 8.531027068199998e-3 8.817929453120000e-3
9.114378236109999e-3 9.420684384910000e-3 9.737168538870000e-3 1.006416127770000e-2
1.040200339520000e-2 1.075104617770000e-2 1.111165168810000e-2 1.148419305400000e-2
1.186905476050000e-2 1.226663294810000e-2 1.267733571350000e-2 1.310158341580000e-2
1.353980898540000e-2 1.399245823620000e-2 1.445999018160000e-2 1.494287735210000e-2
1.544160611600000e-2 1.595667700050000e-2 1.648860501550000e-2 1.703791997620000e-2
1.760516682720000e-2 1.819090596380000e-2 1.879571355370000e-2 1.942018185430000e-2
2.006491952740000e-2 2.073055194940000e-2 2.141772151510000e-2 2.212708793520000e-2
2.285932852500000e-2 2.361513848390000e-2 2.439523116310000e-2 2.520033832030000e-2
2.603121036020000e-2 2.688861655700000e-2 2.777334525880000e-2 2.868620407100000e-2
2.962802001440000e-2 3.059963965900000e-2 3.160192922670000e-2 3.263577466240000e-2
3.370208167010000e-2 3.480177570860000e-2 3.593580194500000e-2 3.710512516170001e-2
3.831072961100000e-2 3.955361881460000e-2 4.083481530310000e-2 4.215536028770000e-2
4.351631326230000e-2 4.491875152710000e-2 4.636376962880000e-2 4.785247871080000e-2
4.938600576600000e-2 5.096549278370000e-2 5.259209578540000e-2 5.426698373830000e-2
5.599133733899999e-2 5.776634765799999e-2 5.959321463469999e-2 6.147314541349999e-2
6.340735250830000e-2 6.539705178610000e-2 6.744346025640001e-2 6.954779365350000e-2
7.171126380020000e-2 7.393507573670000e-2 7.622042460340000e-2 7.856849225920000e-2
8.098044362490000e-2 8.345742272790000e-2 8.600054844100001e-2 8.861090989099999e-2
9.128956152270000e-2 9.403751780060000e-2 9.685574752750000e-2 9.974516776580000e-2
1.027066373380000e-1 1.057409498890000e-1 1.088488264950000e-1 1.120309077900000e-1
1.152877456080000e-1 1.186197940990000e-1 1.220274003290000e-1 1.255107943190000e-1
1.290700785330000e-1 1.327052167740000e-1 1.364160225050000e-1 1.402021465530000e-1
1.440630642110000e-1 1.479980617230000e-1 1.520062221410000e-1 1.560864105740000e-1
1.602372588160000e-1 1.644571493730000e-1 1.687441989010000e-1 1.730962410750000e-1
1.775108089280000e-1 1.819851166800000e-1 1.865160411170000e-1 1.911001025640000e-1
1.957334455300000e-1 2.004118190940000e-1 2.051305571130000e-1 2.098845583880000e-1
2.146682668610000e-1 2.194756520310000e-1 2.243001896870000e-1 2.291348431890000e-1
2.339720454260000e-1 2.388036817200000e-1 2.436210738750000e-1 2.484149656330000e-1
2.531755098380000e-1 2.578922575760000e-1 2.625541496560000e-1 2.671495107540000e-1
2.716660466000000e-1 2.760908446250000e-1 2.804103784420000e-1 2.846105166250000e-1
2.886765362220000e-1 2.925931414410000e-1 2.963444879960000e-1 2.999142135320000e-1
3.032854746060000e-1 3.064409906300000e-1 3.093630951750000e-1 3.120337949960000e-1
3.144348370670000e-1 3.165477838560000e-1 3.183540969940000e-1 3.198352293600000e-1
3.209727255200000e-1 3.217483302870000e-1 3.221441050490000e-1 3.221425513010000e-1
3.217267406700000e-1 3.208804505110000e-1 3.195883039580000e-1 3.178359131080000e-1
3.156100238760000e-1 3.128986608500000e-1 3.096912704050000e-1 3.059788602530000e-1
3.017541336650000e-1 2.970116166880000e-1 2.917477769860000e-1 2.859611333440000e-1
2.796523554710000e-1 2.728243546140000e-1 2.654823665050000e-1 2.576340295610000e-1
2.492894627240000e-1 2.404613492280000e-1 2.311650344150000e-1 2.214186477670000e-1
2.112432611670000e-1 2.006630968470000e-1 1.897057992420000e-1 1.784027844500000e-1
1.667896786540000e-1 1.549068518740000e-1 1.428000448510000e-1 1.305210735010000e-1
1.181285763140000e-1 1.056887436610000e-1 9.327593381420002e-2 8.097303766460000e-2
6.887140398449999e-2 5.707008189060000e-2 4.567408398960000e-2 3.479133354800000e-2
2.452795290970000e-2 1.498161197510000e-2 6.232836812660000e-3 -1.665437239360000e-3
-8.699073850420000e-3 -1.490249010410000e-2 -2.036274002960000e-2 -2.521052977650000e-2
-2.958584135900000e-2 -3.356803947830000e-2 -3.716851912719999e-2 -4.039317575850000e-2
-4.325035260460000e-2 -4.575082484170000e-2 -4.790768391190000e-2 -4.973615207660000e-2
-5.125327802170000e-2 -5.247749508710000e-2 -5.342797921080001e-2 -5.412377771430000e-2
-5.458265473360000e-2 -5.481965523090000e-2 -5.484541679410000e-2 -5.466436391810000e-2
-5.427301810479999e-2 -5.365878244899999e-2 -5.279963632199999e-2 -5.166514625820000e-2
-5.021905013690001e-2 -4.842335274600000e-2 -4.624356455670000e-2 -4.365443940480001e-2
-4.064558899090000e-2 -3.722649887590000e-2 -3.343080512140000e-2 -2.931979755470000e-2
-2.498505615000000e-2 -2.054965878230000e-2 -1.616682903530000e-2 -1.201421335740000e-2
-8.281561991669999e-3 -5.149617561890000e-3 -2.759063754640001e-3 -1.171285495700000e-3
-3.289077832710000e-4 -3.608114268990001e-5 -1.083827003130000e-7 0.000000000000000e0
0.000000000000000e0 0.000000000000000e0 0.000000000000000e0 0.000000000000000e0
0.000000000000000e0 0.000000000000000e0 0.000000000000000e0 0.000000000000000e0
0.000000000000000e0 0.000000000000000e0 0.000000000000000e0 0.000000000000000e0
0.000000000000000e0 0.000000000000000e0 0.000000000000000e0 0.000000000000000e0
0.000000000000000e0 0.000000000000000e0 0.000000000000000e0 0.000000000000000e0
0.000000000000000e0 0.000000000000000e0 0.000000000000000e0 0.000000000000000e0
0.000000000000000e0 0.000000000000000e0 0.000000000000000e0 0.000000000000000e0
0.000000000000000e0 0.000000000000000e0 0.000000000000000e0 0.000000000000000e0
0.000000000000000e0 0.000000000000000e0 0.000000000000000e0 0.000000000000000e0
0.000000000000000e0 0.000000000000000e0 0.000000000000000e0 0.000000000000000e0
0.000000000000000e0 0.000000000000000e0 0.000000000000000e0 0.000000000000000e0
0.000000000000000e0 0.000000000000000e0 0.000000000000000e0 0.000000000000000e0
0.000000000000000e0 0.000000000000000e0 0.000000000000000e0 0.000000000000000e0
0.000000000000000e0 0.000000000000000e0 0.000000000000000e0 0.000000000000000e0
0.000000000000000e0 0.000000000000000e0 0.000000000000000e0 0.000000000000000e0
0.000000000000000e0 0.000000000000000e0 0.000000000000000e0 0.000000000000000e0
0.000000000000000e0 0.000000000000000e0 0.000000000000000e0 0.000000000000000e0
0.000000000000000e0 0.000000000000000e0 0.000000000000000e0 0.000000000000000e0
0.000000000000000e0 0.000000000000000e0 0.000000000000000e0 0.000000000000000e0
0.000000000000000e0 0.000000000000000e0 0.000000000000000e0 0.000000000000000e0
0.000000000000000e0 0.000000000000000e0 0.000000000000000e0 0.000000000000000e0
0.000000000000000e0 0.000000000000000e0 0.000000000000000e0 0.000000000000000e0
0.000000000000000e0 0.000000000000000e0 0.000000000000000e0 0.000000000000000e0
0.000000000000000e0 0.000000000000000e0 0.000000000000000e0 0.000000000000000e0
0.000000000000000e0 0.000000000000000e0 0.000000000000000e0 0.000000000000000e0
0.000000000000000e0 0.000000000000000e0 0.000000000000000e0 0.000000000000000e0
0.000000000000000e0 0.000000000000000e0 0.000000000000000e0 0.000000000000000e0
0.000000000000000e0 0.000000000000000e0 0.000000000000000e0 0.000000000000000e0
0.000000000000000e0 0.000000000000000e0 0.000000000000000e0 0.000000000000000e0
0.000000000000000e0 0.000000000000000e0 0.000000000000000e0 0.000000000000000e0
0.000000000000000e0 0.000000000000000e0 0.000000000000000e0 0.000000000000000e0
0.000000000000000e0 0.000000000000000e0 0.000000000000000e0 0.000000000000000e0
0.000000000000000e0 0.000000000000000e0 0.000000000000000e0 0.000000000000000e0
0.000000000000000e0 0.000000000000000e0 0.000000000000000e0 0.000000000000000e0
0.000000000000000e0 0.000000000000000e0 0.000000000000000e0 0.000000000000000e0
0.000000000000000e0 0.000000000000000e0 0.000000000000000e0 0.000000000000000e0
0.000000000000000e0 0.000000000000000e0 0.000000000000000e0 0.000000000000000e0
0.000000000000000e0 0.000000000000000e0 0.000000000000000e0 0.000000000000000e0
0.000000000000000e0 0.000000000000000e0 0.000000000000000e0 0.000000000000000e0
0.000000000000000e0 0.000000000000000e0 0.000000000000000e0 0.000000000000000e0
0.000000000000000e0 0.000000000000000e0 0.000000000000000e0 0.000000000000000e0
0.000000000000000e0 0.000000000000000e0 0.000000000000000e0 0.000000000000000e0
0.000000000000000e0 0.000000000000000e0 0.000000000000000e0 0.000000000000000e0
0.000000000000000e0 0.000000000000000e0 0.000000000000000e0 0.000000000000000e0
0.000000000000000e0 0.000000000000000e0 0.000000000000000e0 0.000000000000000e0
0.000000000000000e0 0.000000000000000e0 0.000000000000000e0 0.000000000000000e0
0.000000000000000e0 0.000000000000000e0 0.000000000000000e0 0.000000000000000e0
0.000000000000000e0 0.000000000000000e0 0.000000000000000e0 0.000000000000000e0
0.000000000000000e0 0.000000000000000e0 0.000000000000000e0 0.000000000000000e0
0.000000000000000e0 0.000000000000000e0 0.000000000000000e0 0.000000000000000e0
0.000000000000000e0 0.000000000000000e0 0.000000000000000e0 0.000000000000000e0
0.000000000000000e0 0.000000000000000e0 0.000000000000000e0 0.000000000000000e0
0.000000000000000e0 0.000000000000000e0 0.000000000000000e0 0.000000000000000e0
0.000000000000000e0 0.000000000000000e0 0.000000000000000e0 0.000000000000000e0
0.000000000000000e0 0.000000000000000e0 0.000000000000000e0 0.000000000000000e0
0.000000000000000e0 0.000000000000000e0 0.000000000000000e0 0.000000000000000e0
0.000000000000000e0 0.000000000000000e0 0.000000000000000e0 0.000000000000000e0
0.000000000000000e0 0.000000000000000e0 0.000000000000000e0 0.000000000000000e0
0.000000000000000e0 0.000000000000000e0 0.000000000000000e0 0.000000000000000e0
0.000000000000000e0 0.000000000000000e0 0.000000000000000e0 0.000000000000000e0
0.000000000000000e0 0.000000000000000e0 0.000000000000000e0 0.000000000000000e0
0.000000000000000e0 0.000000000000000e0 0.000000000000000e0 0.000000000000000e0
0.000000000000000e0 0.000000000000000e0 0.000000000000000e0 0.000000000000000e0
0.000000000000000e0 0.000000000000000e0 0.000000000000000e0 0.000000000000000e0
0.000000000000000e0 0.000000000000000e0 0.000000000000000e0 0.000000000000000e0
0.000000000000000e0 0.000000000000000e0 0.000000000000000e0 0.000000000000000e0
0.000000000000000e0 0.000000000000000e0 0.000000000000000e0 0.000000000000000e0
0.000000000000000e0 0.000000000000000e0 0.000000000000000e0 0.000000000000000e0
0.000000000000000e0 0.000000000000000e0 0.000000000000000e0 0.000000000000000e0
0.000000000000000e0 0.000000000000000e0 0.000000000000000e0 0.000000000000000e0
0.000000000000000e0 0.000000000000000e0 0.000000000000000e0 0.000000000000000e0
0.000000000000000e0 0.000000000000000e0 0.000000000000000e0
</PP_QIJ.3.4>
<PP_QIJ.3.5 first_index="3" second_index="5" composite_index="13">
0.000000000000000e0 -3.205107438639999e-18 -2.629269960609999e-17 -9.100006759479999e-17
-2.212181918990001e-16 -4.431430510969998e-16 -7.854361693309997e-16 -1.279394928060000e-15
-1.959133196320000e-15 -2.861772863860001e-15 -4.027646893690001e-15 -5.500514543700000e-15
-7.327789442859999e-15 -9.560781244260003e-15 -1.225495161700000e-14 -1.547018538000000e-14
-1.927107762329999e-14 -2.372723771150000e-14 -2.891361110720000e-14 -3.491082000760000e-14
-4.180552383880001e-14 -4.969080070930000e-14 -5.866655098199999e-14 -6.883992418969998e-14
-8.032577058120001e-14 -9.324711865659998e-14 -1.077356801230000e-13 -1.239323837790000e-13
-1.419879399110000e-13 -1.620634368850000e-13 -1.843309716880001e-13 -2.089743162780000e-13
-2.361896217010000e-13 -2.661861620390000e-13 -2.991871203480000e-13 -3.354304188860000e-13
-3.751695960349999e-13 -4.186747324450000e-13 -4.662334290870001e-13 -5.181518400109998e-13
-5.747557627899999e-13 -6.363917897529998e-13 -7.034285233049999e-13 -7.762578587860000e-13
-8.552963385229999e-13 -9.409865808930002e-13 -1.033798788460000e-12 -1.134232339400000e-12
-1.242817466770000e-12 -1.360117030220000e-12 -1.486728385240000e-12 -1.623285355000000e-12
-1.770460310550000e-12 -1.928966364840001e-12 -2.099559686920001e-12 -2.283041942610000e-12
-2.480262868470000e-12 -2.692122986050001e-12 -2.919576464110000e-12 -3.163634136460000e-12
-3.425366683909999e-12 -3.705907988930001e-12 -4.006458672280001e-12 -4.328289821229999e-12
-4.672746919580000e-12 -5.041253990160000e-12 -5.435317961150002e-12 -5.856533267980000e-12
-6.306586703380001e-12 -6.787262528680000e-12 -7.300447860189998e-12 -7.848138345219999e-12
-8.432444143060000e-12 -9.055596226990001e-12 -9.719953024310001e-12 -1.042800741220000e-11
-1.118239408830000e-11 -1.198589733550000e-11 -1.284145920210000e-11 -1.375218811870000e-11
-1.472136797550000e-11 -1.575246768360000e-11 -1.684915124600001e-11 -1.801528836530000e-11
-1.925496561600000e-11 -2.057249821130000e-11 -2.197244239510000e-11 -2.345960849300000e-11
-2.503907465610000e-11 -2.671620133379999e-11 -2.849664651460000e-11 -3.038638177430000e-11
-3.239170917480000e-11 -3.451927905690001e-11 -3.677610877499999e-11 -3.916960242250001e-11
-4.170757159960000e-11 -4.439825727800001e-11 -4.725035282020000e-11 -5.027302821400000e-11
-5.347595558410000e-11 -5.686933604969999e-11 -6.046392799640001e-11 -6.427107683819999e-11
-6.830274634470000e-11 -7.257155161820000e-11 -7.709079380439999e-11 -8.187449662770002e-11
-8.693744484720000e-11 -9.229522473149999e-11 -9.796426665989999e-11 -1.039618899580000e-10
-1.103063500870000e-10 -1.170168883060000e-10 -1.241137839370000e-10 -1.316184093750000e-10
-1.395532879680000e-10 -1.479421549370000e-10 -1.568100214830000e-10 -1.661832422460000e-10
-1.760895862900000e-10 -1.865583118109999e-10 -1.976202447320000e-10 -2.093078614250000e-10
-2.216553757330000e-10 -2.346988305570000e-10 -2.484761942070000e-10 -2.630274617890000e-10
-2.783947618840000e-10 -2.946224687840000e-10 -3.117573205800000e-10 -3.298485434170000e-10
-3.489479822059999e-10 -3.691102381610001e-10 -3.903928134880000e-10 -4.128562636149999e-10
-4.365643573429999e-10 -4.615842453300000e-10 -4.879866373430001e-10 -5.158459887289998e-10
-5.452406965810001e-10 -5.762533061030001e-10 -6.089707277050000e-10 -6.434844653730001e-10
-6.798908569049999e-10 -7.182913266290001e-10 -7.587926512399999e-10 -8.015072394369998e-10
-8.465534260840000e-10 -8.940557816269999e-10 -9.441454375660003e-10 -9.969604288210000e-10
-1.052646053840000e-9 -1.111355253390000e-9 -1.173249008980000e-9 -1.238496761950000e-9
-1.307276854260000e-9 -1.379776992110000e-9 -1.456194733640000e-9 -1.536738001800000e-9
-1.621625623840000e-9 -1.711087898740000e-9 -1.805367194000000e-9 -1.904718573250000e-9
-2.009410456520000e-9 -2.119725314460000e-9 -2.235960398660000e-9 -2.358428509610000e-9
-2.487458804490000e-9 -2.623397646640000e-9 -2.766609499040000e-9 -2.917477863890000e-9
-3.076406270840000e-9 -3.243819316279999e-9 -3.420163756250000e-9 -3.605909655950001e-9
-3.801551598560000e-9 -4.007609956520001e-9 -4.224632228460001e-9 -4.453194445179999e-9
-4.693902648290001e-9 -4.947394445039999e-9 -5.214340643620002e-9 -5.495446972680000e-9
-5.791455889739999e-9 -6.103148482840001e-9 -6.431346470339999e-9 -6.776914303950000e-9
-7.140761380149998e-9 -7.523844365770003e-9 -7.927169643500001e-9 -8.351795883490000e-9
-8.798836747580001e-9 -9.269463732990001e-9 -9.764909162600004e-9 -1.028646932940000e-8
-1.083550780280000e-8 -1.141345890610000e-8 -1.202183137210000e-8 -1.266221218770000e-8
-1.333627063710000e-8 -1.404576255200000e-8 -1.479253478210000e-8 -1.557852989500000e-8
-1.640579111880000e-8 -1.727646753860000e-8 -1.819281956140000e-8 -1.915722466200000e-8
-2.017218342450000e-8 -2.124032589550000e-8 -2.236441826420000e-8 -2.354736988570000e-8
-2.479224066710000e-8 -2.610224883259999e-8 -2.748077908910000e-8 -2.893139121150000e-8
-3.045782907030000e-8 -3.206403012300001e-8 -3.375413539490001e-8 -3.553249997250000e-8
-3.740370403709998e-8 -3.937256446640000e-8 -4.144414703210000e-8 -4.362377922560000e-8
-4.591706374300000e-8 -4.832989266359999e-8 -5.086846235789999e-8 -5.353928916200000e-8
-5.634922585760000e-8 -5.930547900040001e-8 -6.241562713790000e-8 -6.568763996549999e-8
-6.912989846570000e-8 -7.275121608390002e-8 -7.656086099169999e-8 -8.056857949520001e-8
-8.478462064570000e-8 -8.921976211580002e-8 -9.388533740460002e-8 -9.879326444170001e-8
-1.039560756600000e-7 -1.093869496140000e-7 -1.150997442240000e-7 -1.211090317240000e-7
-1.274301354110000e-7 -1.340791682760000e-7 -1.410730736240000e-7 -1.484296677760000e-7
-1.561676849710000e-7 -1.643068245620000e-7 -1.728678006510000e-7 -1.818723942600000e-7
-1.913435081850000e-7 -2.013052246730000e-7 -2.117828660460000e-7 -2.228030584530000e-7
-2.343937988830000e-7 -2.465845256210000e-7 -2.594061923290000e-7 -2.728913459120000e-7
-2.870742083990000e-7 -3.019907630100000e-7 -3.176788446540000e-7 -3.341782350580000e-7
-3.515307627850000e-7 -3.697804083829999e-7 -3.889734149260000e-7 -4.091584042249999e-7
-4.303864990039999e-7 -4.527114513430000e-7 -4.761897777020001e-7 -5.008809008799999e-7
-5.268472992460000e-7 -5.541546636259999e-7 -5.828720622360000e-7 -6.130721140680000e-7
-6.448311711690000e-7 -6.782295102589999e-7 -7.133515341810000e-7 -7.502859836650000e-7
-7.891261599580001e-7 -8.299701588510001e-7 -8.729211167120001e-7 -9.180874691120000e-7
-9.655832227150002e-7 -1.015528241090000e-6 -1.068048545160000e-6 -1.123276629060000e-6
-1.181351792160000e-6 -1.242420488060000e-6 -1.306636691530000e-6 -1.374162284190000e-6
-1.445167459910000e-6 -1.519831151040000e-6 -1.598341476380000e-6 -1.680896212130000e-6
-1.767703286930000e-6 -1.858981302200000e-6 -1.954960079160000e-6 -2.055881233760000e-6
-2.161998781110000e-6 -2.273579770740000e-6 -2.390904954390000e-6 -2.514269487940000e-6
-2.643983669190000e-6 -2.780373713450000e-6 -2.923782568640000e-6 -3.074570772110000e-6
-3.233117351289999e-6 -3.399820770230000e-6 -3.575099924590000e-6 -3.759395187380000e-6
-3.953169508120000e-6 -4.156909568120000e-6 -4.371126994700000e-6 -4.596359637410000e-6
-4.833172909290001e-6 -5.082161196630000e-6 -5.343949340610000e-6 -5.619194194419999e-6
-5.908586259810001e-6 -6.212851407090000e-6 -6.532752682640000e-6 -6.869092208610001e-6
-7.222713179320000e-6 -7.594501959280000e-6 -7.985390288080001e-6 -8.396357597310001e-6
-8.828433445549999e-6 -9.282700077030000e-6 -9.760295110430000e-6 -1.026241436430000e-5
-1.079031482620000e-5 -1.134531777210000e-5 -1.192881204500000e-5 -1.254225749920000e-5
-1.318718861960000e-5 -1.386521832470000e-5 -1.457804196180000e-5 -1.532744150560000e-5
-1.611528996830000e-5 -1.694355603390000e-5 -1.781430892660000e-5 -1.872972352540000e-5
-1.969208573720000e-5 -2.070379814200000e-5 -2.176738592190000e-5 -2.288550309080000e-5
-2.406093903740000e-5 -2.529662539820000e-5 -2.659564327710000e-5 -2.796123082820000e-5
-2.939679121990000e-5 -3.090590100030000e-5 -3.249231888230000e-5 -3.415999496930000e-5
-3.591308044520000e-5 -3.775593774890001e-5 -3.969315125880001e-5 -4.172953851279999e-5
-4.387016198780000e-5 -4.612034146970000e-5 -4.848566703910000e-5 -5.097201270520001e-5
-5.358555071979999e-5 -5.633276660150001e-5 -5.922047490900000e-5 -6.225583579629999e-5
-6.544637238900000e-5 -6.879998902190000e-5 -7.232499037869999e-5 -7.603010157700001e-5
-7.992448924509999e-5 -8.401778363629999e-5 -8.832010183230000e-5 -9.284207208580000e-5
-9.759485935739999e-5 -1.025901921030000e-4 -1.078403903710000e-4 -1.133583952700000e-4
-1.191577998720000e-4 -1.252528816180000e-4 -1.316586362990000e-4 -1.383908136760000e-4
-1.454659548260000e-4 -1.529014312890000e-4 -1.607154860920000e-4 -1.689272767480000e-4
-1.775569203120000e-4 -1.866255405810000e-4 -1.961553175490000e-4 -2.061695392040000e-4
-2.166926557810000e-4 -2.277503365680000e-4 -2.393695293910000e-4 -2.515785228780000e-4
-2.644070116390000e-4 -2.778861644730000e-4 -2.920486957390000e-4 -3.069289400160000e-4
-3.225629302030000e-4 -3.389884791880000e-4 -3.562452652300000e-4 -3.743749212269999e-4
-3.934211279900000e-4 -4.134297117190000e-4 -4.344487458079999e-4 -4.565286571780000e-4
-4.797223372880000e-4 -5.040852580049999e-4 -5.296755925100001e-4 -5.565543414260000e-4
-5.847854643410000e-4 -6.144360169220001e-4 -6.455762937999999e-4 -6.782799774180002e-4
-7.126242930360000e-4 -7.486901700680002e-4 -7.865624099600000e-4 -8.263298607719999e-4
-8.680855986719999e-4 -9.119271164939999e-4 -9.579565195650000e-4 -1.006280728940000e-3
-1.057011692200000e-3 -1.110266602050000e-3 -1.166168122630000e-3 -1.224844624000000e-3
-1.286430424510000e-3 -1.351066041530000e-3 -1.418898450250000e-3 -1.490081350830000e-3
-1.564775443800000e-3 -1.643148713680000e-3 -1.725376720760000e-3 -1.811642900980000e-3
-1.902138873620000e-3 -1.997064756730000e-3 -2.096629489920000e-3 -2.201051164190000e-3
-2.310557358430000e-3 -2.425385481930000e-3 -2.545783122520000e-3 -2.672008399430000e-3
-2.804330320180000e-3 -2.943029140510000e-3 -3.088396726220000e-3 -3.240736915830000e-3
-3.400365882470000e-3 -3.567612493550000e-3 -3.742818666440000e-3 -3.926339718000000e-3
-4.118544705990001e-3 -4.319816759550000e-3 -4.530553396320000e-3 -4.751166822789999e-3
-4.982084214760000e-3 -5.223747973989999e-3 -5.476615956910001e-3 -5.741161670870000e-3
-6.017874432969999e-3 -6.307259485820000e-3 -6.609838064450000e-3 -6.926147407579998e-3
-7.256740706320000e-3 -7.602186982410000e-3 -7.963070887500000e-3 -8.339992414440001e-3
-8.733566510550000e-3 -9.144422582230000e-3 -9.573203879210000e-3 -1.002056674610000e-2
-1.048717972790000e-2 -1.097372251480000e-2 -1.148088471120000e-2 -1.200936441280000e-2
-1.255986657290000e-2 -1.313310114150000e-2 -1.372978095550000e-2 -1.435061935980000e-2
-1.499632753780000e-2 -1.566761152770000e-2 -1.636516890000000e-2 -1.708968507190000e-2
-1.784182923160000e-2 -1.862224984540000e-2 -1.943156972020000e-2 -2.027038059280000e-2
-2.113923721570000e-2 -2.203865091290000e-2 -2.296908257360000e-2 -2.393093505730000e-2
-2.492454498140000e-2 -2.595017386479999e-2 -2.700799860230000e-2 -2.809810124730000e-2
-2.922045808370000e-2 -3.037492796990000e-2 -3.156123994520000e-2 -3.277898009140000e-2
-3.402757765210001e-2 -3.530629041750000e-2 -3.661418939350000e-2 -3.795014278220000e-2
-3.931279931630000e-2 -4.070057099900000e-2 -4.211161532030000e-2 -4.354381703450000e-2
-4.499476960450000e-2 -4.646175643600000e-2 -4.794173205090000e-2 -4.943130336820000e-2
-5.092671128799999e-2 -5.242381280170000e-2 -5.391806387410001e-2 -5.540450337560000e-2
-5.687773836460000e-2 -5.833193105090000e-2 -5.976078779120000e-2 -6.115755049220000e-2
-6.251499081320000e-2 -6.382540757060000e-2 -6.508062775459999e-2 -6.627201156270001e-2
-6.739046184149999e-2 -6.842643830200000e-2 -6.936997683350000e-2 -7.021071418490000e-2
-7.093791821040001e-2 -7.154052378350000e-2 -7.200717437670000e-2 -7.232626917700000e-2
-7.248601546489999e-2 -7.247448583799999e-2 -7.227967969869999e-2 -7.188958828260001e-2
-7.129226237079999e-2 -7.047588173789999e-2 -6.942882535290000e-2 -6.813974140810000e-2
-6.659761641969999e-2 -6.479184298560002e-2 -6.271228631850000e-2 -6.034935046370000e-2
-5.769404619560000e-2 -5.473806401040000e-2 -5.147385742560000e-2 -4.789474396929999e-2
-4.399503376080000e-2 -3.977019837419999e-2 -3.521709557310000e-2 -3.033426823900000e-2
-2.512233797580000e-2 -1.958451485890000e-2 -1.372724378280000e-2 -7.561003745960000e-3
-1.101267818810000e-3 5.630383226850000e-3 1.260502347270000e-2 1.978508328380000e-2
2.712309682330000e-2 3.456065978420000e-2 4.202782954330000e-2 4.944327412110000e-2
5.671554510240000e-2 6.374589057269999e-2 7.043299733140000e-2 7.667988985830000e-2
8.240280735650000e-2 8.754105631840002e-2 9.206532549590001e-2 9.597934208170001e-2
9.930542332130001e-2 1.020433779440000e-1 1.041595658000000e-1 1.056200336010000e-1
1.063961229430000e-1 1.064653505140000e-1 1.058123368290000e-1 1.044297733320000e-1
1.023193842100000e-1 9.949289235660000e-2 9.597291932450000e-2 9.179380099839999e-2
8.700219777410000e-2 8.165742514710001e-2 7.583131268370000e-2 6.960746414500001e-2
6.307970965920000e-2 5.634969410000000e-2 4.952358213960000e-2 4.270814237080000e-2
3.600658024740000e-2 2.951471386930000e-2 2.331798302940000e-2 1.748967786310000e-2
1.209038460240000e-2 7.168423894190000e-3 2.760828029990000e-3 -1.105502268870000e-3
-4.412701356320000e-3 -7.150895081980000e-3 -9.317118988650000e-3 -1.091409276010000e-2
-1.194891441340000e-2 -1.243198924730000e-2 -1.237687754940000e-2 -1.180221734290000e-2
-1.073747933400000e-2 -9.235103473380001e-3 -7.392598385640001e-3 -5.386714498599999e-3
-3.465196151690000e-3 -1.866249677550000e-3 -7.585384173009999e-4 -1.823762225400000e-4
-1.111175464970000e-5 0.000000000000000e0 0.000000000000000e0 0.000000000000000e0
0.000000000000000e0 0.000000000000000e0 0.000000000000000e0 0.000000000000000e0
0.000000000000000e0 0.000000000000000e0 0.000000000000000e0 0.000000000000000e0
0.000000000000000e0 0.000000000000000e0 0.000000000000000e0 0.000000000000000e0
0.000000000000000e0 0.000000000000000e0 0.000000000000000e0 0.000000000000000e0
0.000000000000000e0 0.000000000000000e0 0.000000000000000e0 0.000000000000000e0
0.000000000000000e0 0.000000000000000e0 0.000000000000000e0 0.000000000000000e0
0.000000000000000e0 0.000000000000000e0 0.000000000000000e0 0.000000000000000e0
0.000000000000000e0 0.000000000000000e0 0.000000000000000e0 0.000000000000000e0
0.000000000000000e0 0.000000000000000e0 0.000000000000000e0 0.000000000000000e0
0.000000000000000e0 0.000000000000000e0 0.000000000000000e0 0.000000000000000e0
0.000000000000000e0 0.000000000000000e0 0.000000000000000e0 0.000000000000000e0
0.000000000000000e0 0.000000000000000e0 0.000000000000000e0 0.000000000000000e0
0.000000000000000e0 0.000000000000000e0 0.000000000000000e0 0.000000000000000e0
0.000000000000000e0 0.000000000000000e0 0.000000000000000e0 0.000000000000000e0
0.000000000000000e0 0.000000000000000e0 0.000000000000000e0 0.000000000000000e0
0.000000000000000e0 0.000000000000000e0 0.000000000000000e0 0.000000000000000e0
0.000000000000000e0 0.000000000000000e0 0.000000000000000e0 0.000000000000000e0
0.000000000000000e0 0.000000000000000e0 0.000000000000000e0 0.000000000000000e0
0.000000000000000e0 0.000000000000000e0 0.000000000000000e0 0.000000000000000e0
0.000000000000000e0 0.000000000000000e0 0.000000000000000e0 0.000000000000000e0
0.000000000000000e0 0.000000000000000e0 0.000000000000000e0 0.000000000000000e0
0.000000000000000e0 0.000000000000000e0 0.000000000000000e0 0.000000000000000e0
0.000000000000000e0 0.000000000000000e0 0.000000000000000e0 0.000000000000000e0
0.000000000000000e0 0.000000000000000e0 0.000000000000000e0 0.000000000000000e0
0.000000000000000e0 0.000000000000000e0 0.000000000000000e0 0.000000000000000e0
0.000000000000000e0 0.000000000000000e0 0.000000000000000e0 0.000000000000000e0
0.000000000000000e0 0.000000000000000e0 0.000000000000000e0 0.000000000000000e0
0.000000000000000e0 0.000000000000000e0 0.000000000000000e0 0.000000000000000e0
0.000000000000000e0 0.000000000000000e0 0.000000000000000e0 0.000000000000000e0
0.000000000000000e0 0.000000000000000e0 0.000000000000000e0 0.000000000000000e0
0.000000000000000e0 0.000000000000000e0 0.000000000000000e0 0.000000000000000e0
0.000000000000000e0 0.000000000000000e0 0.000000000000000e0 0.000000000000000e0
0.000000000000000e0 0.000000000000000e0 0.000000000000000e0 0.000000000000000e0
0.000000000000000e0 0.000000000000000e0 0.000000000000000e0 0.000000000000000e0
0.000000000000000e0 0.000000000000000e0 0.000000000000000e0 0.000000000000000e0
0.000000000000000e0 0.000000000000000e0 0.000000000000000e0 0.000000000000000e0
0.000000000000000e0 0.000000000000000e0 0.000000000000000e0 0.000000000000000e0
0.000000000000000e0 0.000000000000000e0 0.000000000000000e0 0.000000000000000e0
0.000000000000000e0 0.000000000000000e0 0.000000000000000e0 0.000000000000000e0
0.000000000000000e0 0.000000000000000e0 0.000000000000000e0 0.000000000000000e0
0.000000000000000e0 0.000000000000000e0 0.000000000000000e0 0.000000000000000e0
0.000000000000000e0 0.000000000000000e0 0.000000000000000e0 0.000000000000000e0
0.000000000000000e0 0.000000000000000e0 0.000000000000000e0 0.000000000000000e0
0.000000000000000e0 0.000000000000000e0 0.000000000000000e0 0.000000000000000e0
0.000000000000000e0 0.000000000000000e0 0.000000000000000e0 0.000000000000000e0
0.000000000000000e0 0.000000000000000e0 0.000000000000000e0 0.000000000000000e0
0.000000000000000e0 0.000000000000000e0 0.000000000000000e0 0.000000000000000e0
0.000000000000000e0 0.000000000000000e0 0.000000000000000e0 0.000000000000000e0
0.000000000000000e0 0.000000000000000e0 0.000000000000000e0 0.000000000000000e0
0.000000000000000e0 0.000000000000000e0 0.000000000000000e0 0.000000000000000e0
0.000000000000000e0 0.000000000000000e0 0.000000000000000e0 0.000000000000000e0
0.000000000000000e0 0.000000000000000e0 0.000000000000000e0 0.000000000000000e0
0.000000000000000e0 0.000000000000000e0 0.000000000000000e0 0.000000000000000e0
0.000000000000000e0 0.000000000000000e0 0.000000000000000e0 0.000000000000000e0
0.000000000000000e0 0.000000000000000e0 0.000000000000000e0 0.000000000000000e0
0.000000000000000e0 0.000000000000000e0 0.000000000000000e0 0.000000000000000e0
0.000000000000000e0 0.000000000000000e0 0.000000000000000e0 0.000000000000000e0
0.000000000000000e0 0.000000000000000e0 0.000000000000000e0 0.000000000000000e0
0.000000000000000e0 0.000000000000000e0 0.000000000000000e0 0.000000000000000e0
0.000000000000000e0 0.000000000000000e0 0.000000000000000e0 0.000000000000000e0
0.000000000000000e0 0.000000000000000e0 0.000000000000000e0 0.000000000000000e0
0.000000000000000e0 0.000000000000000e0 0.000000000000000e0 0.000000000000000e0
0.000000000000000e0 0.000000000000000e0 0.000000000000000e0 0.000000000000000e0
0.000000000000000e0 0.000000000000000e0 0.000000000000000e0 0.000000000000000e0
0.000000000000000e0 0.000000000000000e0 0.000000000000000e0 0.000000000000000e0
0.000000000000000e0 0.000000000000000e0 0.000000000000000e0 0.000000000000000e0
0.000000000000000e0 0.000000000000000e0 0.000000000000000e0 0.000000000000000e0
0.000000000000000e0 0.000000000000000e0 0.000000000000000e0 0.000000000000000e0
0.000000000000000e0 0.000000000000000e0 0.000000000000000e0 0.000000000000000e0
0.000000000000000e0 0.000000000000000e0 0.000000000000000e0
</PP_QIJ.3.5>
<PP_QIJ.3.6 first_index="3" second_index="6" composite_index="18">
0.000000000000000e0 5.669831971960000e-18 4.651176027929998e-17 1.609790319280000e-16
3.913347684010000e-16 7.839196305719999e-16 1.389435827040000e-15 2.263248395470000e-15
3.465704737289999e-15 5.062473439749999e-15 7.124903475540000e-15 9.730404929720001e-15
1.296285246620000e-14 1.691301281190000e-14 2.167899760620000e-14 2.736674303550000e-14
3.409051775250000e-14 4.197346065579999e-14 5.114815019630001e-14 6.175720696320001e-14
7.395393139800001e-14 8.790297858460001e-14 1.037810721690000e-13 1.217777595700000e-13
1.420962107690000e-13 1.649540630630000e-13 1.905843143350000e-13 2.192362674920000e-13
2.511765288860000e-13 2.866900636830000e-13 3.260813112849999e-13 3.696753641080000e-13
4.178192131639999e-13 4.708830640989998e-13 5.292617275259999e-13 5.933760876889998e-13
6.636746537390001e-13 7.406351980860002e-13 8.247664865669996e-13 9.166101054039999e-13
1.016742390180000e-12 1.125776462400000e-12 1.244364379360000e-12 1.373199403520000e-12
1.513018397870001e-12 1.664604353890000e-12 1.828789059440000e-12 2.006455914050000e-12
2.198542899470000e-12 2.406045713879999e-12 2.630021078540000e-12 2.871590226060000e-12
3.131942580130000e-12 3.412339636890000e-12 3.714119058630000e-12 4.038698991430000e-12
4.387582618409999e-12 4.762362961340000e-12 5.164727943780000e-12 5.596465729780000e-12
6.059470352630000e-12 6.555747649320000e-12 7.087421516790002e-12 7.656740507160000e-12
8.266084779950001e-12 8.917973430150001e-12 9.615072212220001e-12 1.036020168090000e-11
1.115634577070000e-11 1.200666083840000e-11 1.291448519070000e-11 1.388334912580000e-11
1.491698551330000e-11 1.601934094270000e-11 1.719458746970000e-11 1.844713499140000e-11
1.978164428529999e-11 2.120304074510000e-11 2.271652885120000e-11 2.432760741430000e-11
2.604208563279999e-11 2.786610000690000e-11 2.980613215440000e-11 3.186902757500000e-11
3.406201541510001e-11 3.639272928220000e-11 3.886922916719999e-11 4.150002453130000e-11
4.429409861840001e-11 4.726093405810000e-11 5.041053982610001e-11 5.375347963389999e-11
5.730090182240001e-11 6.106457083760000e-11 6.505690037220000e-11 6.929098825970001e-11
7.378065321229998e-11 7.854047350049998e-11 8.358582767349999e-11 8.893293742970002e-11
9.459891274749999e-11 1.006017993960000e-10 1.069606289470000e-10 1.136954714270000e-10
1.208274907310000e-10 1.283790029600000e-10 1.363735378280000e-10 1.448359032860000e-10
1.537922535590000e-10 1.632701607370000e-10 1.732986901430000e-10 1.839084796460000e-10
1.951318231340000e-10 2.070027583730000e-10 2.195571594630001e-10 2.328328341430000e-10
2.468696261900000e-10 2.617095231850000e-10 2.773967699110000e-10 2.939779876950000e-10
3.115022999800000e-10 3.300214644780000e-10 3.495900122109999e-10 3.702653938389999e-10
3.921081336129999e-10 4.151819913770000e-10 4.395541330250000e-10 4.652953098500000e-10
4.924800472579999e-10 5.211868433119999e-10 5.514983776409999e-10 5.835017312269999e-10
6.172886176510000e-10 6.529556263870001e-10 6.906044787620001e-10 7.303422972450000e-10
7.722818887590000e-10 8.165420427240001e-10 8.632478446189999e-10 9.125310058469999e-10
9.645302107529998e-10 1.019391481690000e-9 1.077268563030000e-9 1.138323325200000e-9
1.202726189630000e-9 1.270656575780000e-9 1.342303371460000e-9 1.417865427500000e-9
1.497552078080000e-9 1.581583688100000e-9 1.670192229000000e-9 1.763621884300000e-9
1.862129686710000e-9 1.965986188200000e-9 2.075476164780000e-9 2.190899357860000e-9
2.312571254060000e-9 2.440823905320000e-9 2.576006791579999e-9 2.718487728180000e-9
2.868653820100000e-9 3.026912465800000e-9 3.193692412839999e-9 3.369444868350000e-9
3.554644666740000e-9 3.749791498040000e-9 3.955411199629999e-9 4.172057114919998e-9
4.400311522210001e-9 4.640787137470001e-9 4.894128694850002e-9 5.161014608839999e-9
5.442158722419999e-9 5.738312145500001e-9 6.050265188440001e-9 6.378849395330000e-9
6.724939682510000e-9 7.089456587410002e-9 7.473368633590001e-9 7.877694817920000e-9
8.303507226210000e-9 8.751933783830001e-9 9.224161148389999e-9 9.721437751700000e-9
1.024507699870000e-8 1.079646063160000e-8 1.137704226750000e-8 1.198835111840000e-8
1.263199590350000e-8 1.330966896290000e-8 1.402315058400000e-8 1.477431355010000e-8
1.556512792480000e-8 1.639766608180000e-8 1.727410799530000e-8 1.819674680210000e-8
1.916799465080000e-8 2.019038885250000e-8 2.126659834880000e-8 2.239943051230000e-8
2.359183829830000e-8 2.484692776440001e-8 2.616796597840000e-8 2.755838933220000e-8
2.902181228489999e-8 3.056203655650001e-8 3.218306079389999e-8 3.388909073590001e-8
3.568454990080000e-8 3.757409082450001e-8 3.956260687770000e-8 4.165524469069998e-8
4.385741721810000e-8 4.617481747590000e-8 4.861343298620000e-8 5.117956096440000e-8
5.387982428840001e-8 5.672118828970001e-8 5.971097840810000e-8 6.285689875510001e-8
6.616705163190001e-8 6.964995805209999e-8 7.331457931919999e-8 7.717033971510000e-8
8.122715035429998e-8 8.549543426579998e-8 8.998615276460001e-8 9.471083317920002e-8
9.968159800490001e-8 1.049111955560000e-7 1.104130321950000e-7 1.162012062150000e-7
1.222905434690000e-7 1.286966348290000e-7 1.354358755660000e-7 1.425255067620000e-7
1.499836588420000e-7 1.578293973520000e-7 1.660827710800000e-7 1.747648626560000e-7
1.838978417530000e-7 1.935050210140000e-7 2.036109148610000e-7 2.142413013180000e-7
2.254232870150000e-7 2.371853755300000e-7 2.495575392370000e-7 2.625712948490000e-7
2.762597828410001e-7 2.906578509480000e-7 3.058021419540000e-7 3.217311859850000e-7
3.384854975470000e-7 3.561076775400001e-7 3.746425205140000e-7 3.941371274280000e-7
4.146410241970000e-7 4.362062863310000e-7 4.588876699580000e-7 4.827427495870001e-7
5.078320629310000e-7 5.342192631630000e-7 5.619712789910000e-7 5.911584829390000e-7
6.218548682670001e-7 6.541382349670001e-7 6.880903853040000e-7 7.237973293770001e-7
7.613495012390001e-7 8.008419860929999e-7 8.423747591420000e-7 8.860529366889999e-7
9.319870401149998e-7 9.802932733890001e-7 1.031093814820000e-6 1.084517123730000e-6
1.140698262920000e-6 1.199779237570000e-6 1.261909351620000e-6 1.327245582310000e-6
1.395952973990000e-6 1.468205052080000e-6 1.544184258260000e-6 1.624082407910000e-6
1.708101171090000e-6 1.796452578030000e-6 1.889359550590000e-6 1.987056460940000e-6
2.089789718850001e-6 2.197818389000000e-6 2.311414840000000e-6 2.430865426510000e-6
2.556471206430000e-6 2.688548694670001e-6 2.827430655570000e-6 2.973466935850000e-6
3.127025340190000e-6 3.288492551630000e-6 3.458275099000000e-6 3.636800373890000e-6
3.824517699620000e-6 4.021899454820000e-6 4.229442254580000e-6 4.447668191889998e-6
4.677126142520000e-6 4.918393136690000e-6 5.172075800749999e-6 5.438811872580000e-6
5.719271794340001e-6 6.014160386630000e-6 6.324218608110000e-6 6.650225404990000e-6
6.992999654920000e-6 7.353402210110000e-6 7.732338044680000e-6 8.130758511600000e-6
8.549663714750000e-6 8.990105001929999e-6 9.453187585030001e-6 9.940073293679998e-6
1.045198346930000e-5 1.099020200670000e-5 1.155607855040000e-5 1.215103185370000e-5
1.277655330930000e-5 1.343421065870000e-5 1.412565189150000e-5 1.485260934190000e-5
1.561690399410000e-5 1.642045000690000e-5 1.726525946740000e-5 1.815344738700000e-5
1.908723695080000e-5 2.006896503320000e-5 2.110108799390000e-5 2.218618776800001e-5
2.332697826430000e-5 2.452631208840000e-5 2.578718760649999e-5 2.711275636670000e-5
2.850633089630000e-5 2.997139289300000e-5 3.151160183120000e-5 3.313080400280000e-5
3.483304201500000e-5 3.662256476740000e-5 3.850383793330000e-5 4.048155496870000e-5
4.256064867720000e-5 4.474630335680000e-5 4.704396755880000e-5 4.945936748820000e-5
5.199852107810000e-5 5.466775277100000e-5 5.747370904280000e-5 6.042337470480000e-5
6.352409002329999e-5 6.678356869690000e-5 7.020991673279999e-5 7.381165226780000e-5
7.759772637869999e-5 8.157754493160001e-5 8.576099152100001e-5 9.015845155050000e-5
9.478083751279998e-5 9.963961552500001e-5 1.047468331830000e-4 1.101151487940000e-4
1.157578620610000e-4 1.216889462810000e-4 1.279230821390000e-4 1.344756931610000e-4
1.413629829200000e-4 1.486019740730000e-4 1.562105493100000e-4 1.642074943140000e-4
1.726125428220000e-4 1.814464238960000e-4 1.907309114840000e-4 2.004888764150000e-4
2.107443409030000e-4 2.215225357010000e-4 2.328499600260000e-4 2.447544443740000e-4
2.572652163560000e-4 2.704129697080000e-4 2.842299366090000e-4 2.987499634490000e-4
3.140085902240000e-4 3.300431336960000e-4 3.468927745069999e-4 3.645986484050000e-4
3.832039417740001e-4 4.027539916510000e-4 4.232963904250000e-4 4.448810954210000e-4
4.675605435760001e-4 4.913897714240001e-4 5.164265406089999e-4 5.427314691629999e-4
5.703681687800000e-4 5.994033883280001e-4 6.299071638629999e-4 6.619529753869999e-4
6.956179106220000e-4 7.309828360820001e-4 7.681325756949999e-4 8.071560972910000e-4
8.481467072189998e-4 8.912022534040000e-4 9.364253371350001e-4 9.839235338980000e-4
1.033809623540000e-3 1.086201830090000e-3 1.141224071580000e-3 1.199006220070000e-3
1.259684372290000e-3 1.323401131230000e-3 1.390305898830000e-3 1.460555180200000e-3
1.534312899640000e-3 1.611750728650000e-3 1.693048426350000e-3 1.778394192380000e-3
1.867985032640000e-3 1.962027137970000e-3 2.060736276100000e-3 2.164338196830000e-3
2.273069050660000e-3 2.387175820900000e-3 2.506916769290000e-3 2.632561895100000e-3
2.764393407550000e-3 2.902706211440000e-3 3.047808405680000e-3 3.200021794470000e-3
3.359682410530000e-3 3.527141049970000e-3 3.702763818060000e-3 3.886932685040001e-3
4.080046051070000e-3 4.282519319110000e-3 4.494785474400000e-3 4.717295669090000e-3
4.950519810040000e-3 5.194947148050001e-3 5.451086865910000e-3 5.719468662870000e-3
6.000643332560001e-3 6.295183330970000e-3 6.603683330810001e-3 6.926760758170001e-3
7.265056306820000e-3 7.619234424979999e-3 7.989983768960000e-3 8.378017617279999e-3
8.784074238340001e-3 9.208917204020000e-3 9.653335640689999e-3 1.011814440840000e-2
1.060418419800000e-2 1.111232153540000e-2 1.164344868000000e-2 1.219848340520000e-2
1.277836864520000e-2 1.338407199370000e-2 1.401658503620000e-2 1.467692249820000e-2
1.536612118920000e-2 1.608523872020000e-2 1.683535197260000e-2 1.761755529150000e-2
1.843295837900000e-2 1.928268385600000e-2 2.016786446330000e-2 2.108963986810000e-2
2.204915304110000e-2 2.304754616670000e-2 2.408595604690000e-2 2.516550895620000e-2
2.628731490490000e-2 2.745246126330000e-2 2.866200569860000e-2 2.991696837480000e-2
3.121832336210000e-2 3.256698920370000e-2 3.396381858290000e-2 3.540958703460000e-2
3.690498064550000e-2 3.845058268400000e-2 4.004685910450000e-2 4.169414287020000e-2
4.339261704140000e-2 4.514229657750000e-2 4.694300880909999e-2 4.879437253680000e-2
5.069577572480001e-2 5.264635176210000e-2 5.464495427950000e-2 5.669013051679999e-2
5.878009325519999e-2 6.091269134450000e-2 6.308537887450000e-2 6.529518306460000e-2
6.753867097060001e-2 6.981191513880001e-2 7.211045836820000e-2 7.442927777990000e-2
7.676274843460000e-2 7.910460677720001e-2 8.144791424230000e-2 8.378502139710001e-2
8.610753305750000e-2 8.840627486179999e-2 9.067126184690000e-2 9.289166962610000e-2
9.505580881910001e-2 9.715110344150000e-2 9.916407399960001e-2 1.010803260820000e-1
1.028845452580000e-1 1.045604991130000e-1 1.060910472470000e-1 1.074581600220000e-1
1.086429468140000e-1 1.096256944330000e-1 1.103859162410000e-1 1.109024123780000e-1
1.111533412860000e-1 1.111163024740000e-1 1.107684302230000e-1 1.100864975620000e-1
1.090470295320000e-1 1.076264243390000e-1 1.058010806600000e-1 1.035475289470000e-1
1.008425643130000e-1 9.766337834230001e-2 9.398768711039999e-2 8.979385286070000e-2
8.506099726220000e-2 7.976910502430000e-2 7.389911804260000e-2 6.743302225220001e-2
6.035393212380001e-2 5.264618134529999e-2 4.429543277870001e-2 3.528882627370000e-2
2.561518932480000e-2 1.526534266390000e-2 4.232540307500000e-3 -7.486909293429999e-3
-1.989278856550000e-2 -3.297982709800000e-2 -4.673621513740000e-2 -6.114172968360000e-2
-7.616544852820000e-2 -9.176306247130000e-2 -1.078738504020000e-1 -1.244174608240000e-1
-1.412907508660000e-1 -1.583650719080000e-1 -1.754845569230000e-1 -1.924661467740000e-1
-2.091022638720000e-1 -2.251671482550000e-1 -2.404278182170000e-1 -2.546602439040000e-1
-2.676703652060000e-1 -2.793176282300000e-1 -2.895351103800000e-1 -2.983340630970000e-1
-3.057703315160000e-1 -3.118472629280000e-1 -3.164888330340000e-1 -3.196173505910000e-1
-3.211663770850000e-1 -3.210825372670000e-1 -3.193273821270000e-1 -3.158792515360000e-1
-3.107350475400000e-1 -3.039118969600000e-1 -2.954485733820000e-1 -2.854066169870000e-1
-2.738709655610000e-1 -2.609499849160000e-1 -2.467746715040000e-1 -2.314969212790000e-1
-2.152867214680000e-1 -1.983283576730000e-1 -1.808158196580000e-1 -1.629479021110000e-1
-1.449235630000000e-1 -1.269382116320000e-1 -1.091813458880000e-1 -9.183570818300002e-2
-7.507770038849999e-2 -5.907860520850000e-2 -4.400604773630000e-2 -3.002525595620000e-2
-1.729973895000000e-2 -5.990982255270000e-3 3.743510765780000e-3 1.175491949420000e-2
1.791211628450000e-2 2.211685117620000e-2 2.432675884640000e-2 2.458653145290000e-2
2.306426658010000e-2 2.008307787050000e-2 1.612505285140000e-2 1.176622021640000e-2
7.578615730979999e-3 4.086253008070001e-3 1.662542585800000e-3 4.000850070660000e-4
2.437930490170000e-5 0.000000000000000e0 0.000000000000000e0 0.000000000000000e0
0.000000000000000e0 0.000000000000000e0 0.000000000000000e0 0.000000000000000e0
0.000000000000000e0 0.000000000000000e0 0.000000000000000e0 0.000000000000000e0
0.000000000000000e0 0.000000000000000e0 0.000000000000000e0 0.000000000000000e0
0.000000000000000e0 0.000000000000000e0 0.000000000000000e0 0.000000000000000e0
0.000000000000000e0 0.000000000000000e0 0.000000000000000e0 0.000000000000000e0
0.000000000000000e0 0.000000000000000e0 0.000000000000000e0 0.000000000000000e0
0.000000000000000e0 0.000000000000000e0 0.000000000000000e0 0.000000000000000e0
0.000000000000000e0 0.000000000000000e0 0.000000000000000e0 0.000000000000000e0
0.000000000000000e0 0.000000000000000e0 0.000000000000000e0 0.000000000000000e0
0.000000000000000e0 0.000000000000000e0 0.000000000000000e0 0.000000000000000e0
0.000000000000000e0 0.000000000000000e0 0.000000000000000e0 0.000000000000000e0
0.000000000000000e0 0.000000000000000e0 0.000000000000000e0 0.000000000000000e0
0.000000000000000e0 0.000000000000000e0 0.000000000000000e0 0.000000000000000e0
0.000000000000000e0 0.000000000000000e0 0.000000000000000e0 0.000000000000000e0
0.000000000000000e0 0.000000000000000e0 0.000000000000000e0 0.000000000000000e0
0.000000000000000e0 0.000000000000000e0 0.000000000000000e0 0.000000000000000e0
0.000000000000000e0 0.000000000000000e0 0.000000000000000e0 0.000000000000000e0
0.000000000000000e0 0.000000000000000e0 0.000000000000000e0 0.000000000000000e0
0.000000000000000e0 0.000000000000000e0 0.000000000000000e0 0.000000000000000e0
0.000000000000000e0 0.000000000000000e0 0.000000000000000e0 0.000000000000000e0
0.000000000000000e0 0.000000000000000e0 0.000000000000000e0 0.000000000000000e0
0.000000000000000e0 0.000000000000000e0 0.000000000000000e0 0.000000000000000e0
0.000000000000000e0 0.000000000000000e0 0.000000000000000e0 0.000000000000000e0
0.000000000000000e0 0.000000000000000e0 0.000000000000000e0 0.000000000000000e0
0.000000000000000e0 0.000000000000000e0 0.000000000000000e0 0.000000000000000e0
0.000000000000000e0 0.000000000000000e0 0.000000000000000e0 0.000000000000000e0
0.000000000000000e0 0.000000000000000e0 0.000000000000000e0 0.000000000000000e0
0.000000000000000e0 0.000000000000000e0 0.000000000000000e0 0.000000000000000e0
0.000000000000000e0 0.000000000000000e0 0.000000000000000e0 0.000000000000000e0
0.000000000000000e0 0.000000000000000e0 0.000000000000000e0 0.000000000000000e0
0.000000000000000e0 0.000000000000000e0 0.000000000000000e0 0.000000000000000e0
0.000000000000000e0 0.000000000000000e0 0.000000000000000e0 0.000000000000000e0
0.000000000000000e0 0.000000000000000e0 0.000000000000000e0 0.000000000000000e0
0.000000000000000e0 0.000000000000000e0 0.000000000000000e0 0.000000000000000e0
0.000000000000000e0 0.000000000000000e0 0.000000000000000e0 0.000000000000000e0
0.000000000000000e0 0.000000000000000e0 0.000000000000000e0 0.000000000000000e0
0.000000000000000e0 0.000000000000000e0 0.000000000000000e0 0.000000000000000e0
0.000000000000000e0 0.000000000000000e0 0.000000000000000e0 0.000000000000000e0
0.000000000000000e0 0.000000000000000e0 0.000000000000000e0 0.000000000000000e0
0.000000000000000e0 0.000000000000000e0 0.000000000000000e0 0.000000000000000e0
0.000000000000000e0 0.000000000000000e0 0.000000000000000e0 0.000000000000000e0
0.000000000000000e0 0.000000000000000e0 0.000000000000000e0 0.000000000000000e0
0.000000000000000e0 0.000000000000000e0 0.000000000000000e0 0.000000000000000e0
0.000000000000000e0 0.000000000000000e0 0.000000000000000e0 0.000000000000000e0
0.000000000000000e0 0.000000000000000e0 0.000000000000000e0 0.000000000000000e0
0.000000000000000e0 0.000000000000000e0 0.000000000000000e0 0.000000000000000e0
0.000000000000000e0 0.000000000000000e0 0.000000000000000e0 0.000000000000000e0
0.000000000000000e0 0.000000000000000e0 0.000000000000000e0 0.000000000000000e0
0.000000000000000e0 0.000000000000000e0 0.000000000000000e0 0.000000000000000e0
0.000000000000000e0 0.000000000000000e0 0.000000000000000e0 0.000000000000000e0
0.000000000000000e0 0.000000000000000e0 0.000000000000000e0 0.000000000000000e0
0.000000000000000e0 0.000000000000000e0 0.000000000000000e0 0.000000000000000e0
0.000000000000000e0 0.000000000000000e0 0.000000000000000e0 0.000000000000000e0
0.000000000000000e0 0.000000000000000e0 0.000000000000000e0 0.000000000000000e0
0.000000000000000e0 0.000000000000000e0 0.000000000000000e0 0.000000000000000e0
0.000000000000000e0 0.000000000000000e0 0.000000000000000e0 0.000000000000000e0
0.000000000000000e0 0.000000000000000e0 0.000000000000000e0 0.000000000000000e0
0.000000000000000e0 0.000000000000000e0 0.000000000000000e0 0.000000000000000e0
0.000000000000000e0 0.000000000000000e0 0.000000000000000e0 0.000000000000000e0
0.000000000000000e0 0.000000000000000e0 0.000000000000000e0 0.000000000000000e0
0.000000000000000e0 0.000000000000000e0 0.000000000000000e0 0.000000000000000e0
0.000000000000000e0 0.000000000000000e0 0.000000000000000e0 0.000000000000000e0
0.000000000000000e0 0.000000000000000e0 0.000000000000000e0 0.000000000000000e0
0.000000000000000e0 0.000000000000000e0 0.000000000000000e0 0.000000000000000e0
0.000000000000000e0 0.000000000000000e0 0.000000000000000e0 0.000000000000000e0
0.000000000000000e0 0.000000000000000e0 0.000000000000000e0 0.000000000000000e0
0.000000000000000e0 0.000000000000000e0 0.000000000000000e0 0.000000000000000e0
0.000000000000000e0 0.000000000000000e0 0.000000000000000e0 0.000000000000000e0
0.000000000000000e0 0.000000000000000e0 0.000000000000000e0 0.000000000000000e0
0.000000000000000e0 0.000000000000000e0 0.000000000000000e0
</PP_QIJ.3.6>
<PP_QIJ.4.4 first_index="4" second_index="4" composite_index="10">
0.000000000000000e0 9.830146525539998e-12 3.998419741450001e-11 9.148700419460001e-11
1.654038022820000e-10 2.628416746950000e-10 3.849510669690000e-10 5.329273550520000e-10
7.080124679830000e-10 9.114965672529999e-10 1.144719784790000e-9 1.409074021600000e-9
1.706004809100000e-9 2.037013235380000e-9 2.403657938540000e-9 2.807557169470000e-9
3.250390926440001e-9 3.733903163890000e-9 4.259904078130001e-9 4.830272472410000e-9
5.446958204270000e-9 6.111984717770000e-9 6.827451663700001e-9 7.595537610739999e-9
8.418502850639998e-9 9.298692300599999e-9 1.023853850640000e-8 1.124056474950000e-8
1.230738826180000e-8 1.344172355140000e-8 1.464638584410000e-8 1.592429464350000e-8
1.727847741410000e-8 1.871207339230000e-8 2.022833752870000e-8 2.183064456640000e-8
2.352249326080000e-8 2.530751074499999e-8 2.718945704470000e-8 2.917222975100001e-8
3.125986885240000e-8 3.345656173500000e-8 3.576664835350001e-8 3.819462658220001e-8
4.074515774869999e-8 4.342307235960000e-8 4.623337602230000e-8 4.918125557160000e-8
5.227208540650001e-8 5.551143404509999e-8 5.890507090529999e-8 6.245897331900000e-8
6.617933378660000e-8 7.007256748120000e-8 7.414532001100000e-8 7.840447544910000e-8
8.285716463690001e-8 8.751077377509999e-8 9.237295330799999e-8 9.745162711420001e-8
1.027550020110000e-7 1.082915775880000e-7 1.140701563730000e-7 1.200998543510000e-7
1.263901118440000e-7 1.329507047609999e-7 1.397917562340000e-7 1.469237486540000e-7
1.543575361240000e-7 1.621043573270000e-7 1.701758488460000e-7 1.785840589340000e-7
1.873414617590000e-7 1.964609721330000e-7 2.059559607530000e-7 2.158402699470000e-7
2.261282299830000e-7 2.368346759120000e-7 2.479749650040000e-7 2.595649947720000e-7
2.716212216170000e-7 2.841606801040000e-7 2.972010029080000e-7 3.107604414260001e-7
3.248578871130000e-7 3.395128935289999e-7 3.547456991490000e-7 3.705772509530000e-7
3.870292288160000e-7 4.041240707360000e-7 4.218849989210001e-7 4.403360467690001e-7
4.595020867680000e-7 4.794088593440000e-7 5.000830027020001e-7 5.215520836810001e-7
5.438446296659999e-7 5.669901615730001e-7 5.910192279890001e-7 6.159634404430000e-7
6.418555099110001e-7 6.687292845390001e-7 6.966197886729999e-7 7.255632632130000e-7
7.555972073360000e-7 7.867604216509999e-7 8.190930528230000e-7 8.526366397140000e-7
8.874341611009999e-7 9.235300850190001e-7 9.609704197850000e-7 9.998027667620001e-7
1.040076374910000e-6 1.081842197230000e-6 1.125152949080000e-6 1.170063168500000e-6
1.216629278620000e-6 1.264909652160000e-6 1.314964678130000e-6 1.366856830790000e-6
1.420650741010000e-6 1.476413269980000e-6 1.534213585540000e-6 1.594123240950000e-6
1.656216256510000e-6 1.720569203840000e-6 1.787261293100000e-6 1.856374463090000e-6
1.927993474540000e-6 2.002206006480000e-6 2.079102755910000e-6 2.158777540849999e-6
2.241327406980000e-6 2.326852737770000e-6 2.415457368440000e-6 2.507248703840000e-6
2.602337840210000e-6 2.700839691180001e-6 2.802873118060000e-6 2.908561064480000e-6
3.018030695690000e-6 3.131413542560000e-6 3.248845650470000e-6 3.370467733270000e-6
3.496425332489999e-6 3.626868981959999e-6 3.761954377960000e-6 3.901842555280000e-6
4.046700069140000e-6 4.196699183370000e-6 4.352018064960000e-6 4.512840985200000e-6
4.679358527720000e-6 4.851767803530000e-6 5.030272673370001e-6 5.215083977700000e-6
5.406419774410001e-6 5.604505584620001e-6 5.809574646900000e-6 6.021868180049998e-6
6.241635654810000e-6 6.469135074879999e-6 6.704633267409999e-6 6.948406183320000e-6
7.200739207980000e-6 7.461927482270001e-6 7.732276234610000e-6 8.012101124299997e-6
8.301728596510001e-6 8.601496249229999e-6 8.911753212839999e-6 9.232860542410002e-6
9.565191623460001e-6 9.909132591380001e-6 1.026508276520000e-5 1.063345509590000e-5
1.101467663020000e-5 1.140918899010000e-5 1.181744886830000e-5 1.223992854050000e-5
1.267711639600000e-5 1.312951748500000e-5 1.359765408520000e-5 1.408206628790000e-5
1.458331260290000e-5 1.510197058510000e-5 1.563863748220000e-5 1.619393090320000e-5
1.676848951130000e-5 1.736297373900000e-5 1.797806652810000e-5 1.861447409480000e-5
1.927292672040000e-5 1.995417956920000e-5 2.065901353380000e-5 2.138823610950000e-5
2.214268229810000e-5 2.292321554240000e-5 2.373072869230000e-5 2.456614500400000e-5
2.543041917260000e-5 2.632453840030000e-5 2.724952350050000e-5 2.820643003920000e-5
2.919634951550000e-5 3.022041058190000e-5 3.127978030600000e-5 3.237566547519999e-5
3.350931394520000e-5 3.468201603480000e-5 3.589510596759999e-5 3.714996336260000e-5
3.844801477580000e-5 3.979073529320000e-5 4.117965017880000e-5 4.261633657770000e-5
4.410242527769999e-5 4.563960252969999e-5 4.722961193030001e-5 4.887425636900000e-5
5.057540003970001e-5 5.233497052170001e-5 5.415496093109999e-5 5.603743214449999e-5
5.798451509870000e-5 5.999841316820000e-5 6.208140462270000e-5 6.423584516929999e-5
6.646417057870001e-5 6.876889940290001e-5 7.115263578280000e-5 7.361807235219999e-5
7.616799323980000e-5 7.880527717329999e-5 8.153290068750000e-5 8.435394144309999e-5
8.727158165550000e-5 9.028911164220000e-5 9.340993348790001e-5 9.663756483629999e-5
9.997564280799997e-5 1.034279280530000e-4 1.069983089380000e-4 1.106908058810000e-4
1.145095758210000e-4 1.184589168560000e-4 1.225432730230000e-4 1.267672392470000e-4
1.311355664560000e-4 1.356531668710000e-4 1.403251194690000e-4 1.451566756410000e-4
1.501532650330000e-4 1.553205015840000e-4 1.606641897800000e-4 1.661903311020000e-4
1.719051307090000e-4 1.778150043340000e-4 1.839265854240000e-4 1.902467325090000e-4
1.967825368380000e-4 2.035413302510000e-4 2.105306933390000e-4 2.177584638630000e-4
2.252327454680000e-4 2.329619166850000e-4 2.409546402440000e-4 2.492198726950000e-4
2.577668743580000e-4 2.666052196080000e-4 2.757448075060001e-4 2.851958727960000e-4
2.949689972600000e-4 3.050751214720000e-4 3.155255569370000e-4 3.263319986450000e-4
3.375065380490000e-4 3.490616764760000e-4 3.610103390010000e-4 3.733658887750000e-4
3.861421418490000e-4 3.993533824900000e-4 4.130143790150001e-4 4.271404001620001e-4
4.417472320090000e-4 4.568511954630000e-4 4.724691643439999e-4 4.886185840680001e-4
5.053174909689999e-4 5.225845322640000e-4 5.404389867000001e-4 5.589007858770000e-4
5.779905363109999e-4 5.977295422250000e-4 6.181398291060001e-4 6.392441680600001e-4
6.610661009830000e-4 6.836299665789999e-4 7.069609272420001e-4 7.310849968530000e-4
7.560290695060000e-4 7.818209491959999e-4 8.084893804970001e-4 8.360640802810000e-4
8.645757704919999e-4 8.940562120119999e-4 9.245382396720000e-4 9.560557984360001e-4
9.886439807720000e-4 1.022339065310000e-3 1.057178556750000e-3 1.093201227140000e-3
1.130447158510000e-3 1.168957786950000e-3 1.208775948090000e-3 1.249945924230000e-3
1.292513492870000e-3 1.336525977020000e-3 1.382032297040000e-3 1.429083024330000e-3
1.477730436680000e-3 1.528028575600000e-3 1.580033305380000e-3 1.633802374260000e-3
1.689395477570000e-3 1.746874322920000e-3 1.806302697590000e-3 1.867746538160000e-3
1.931274002380000e-3 1.996955543480000e-3 2.064863986850000e-3 2.135074609350000e-3
2.207665221090000e-3 2.282716250020000e-3 2.360310829220000e-3 2.440534887080000e-3
2.523477240440000e-3 2.609229690720000e-3 2.697887123260000e-3 2.789547609870000e-3
2.884312514670000e-3 2.982286603450000e-3 3.083578156530000e-3 3.188299085280000e-3
3.296565052439999e-3 3.408495596290000e-3 3.524214258830000e-3 3.643848718110000e-3
3.767530924760000e-3 3.895397242980000e-3 4.027588595940000e-3 4.164250615920000e-3
4.305533799130000e-3 4.451593665540000e-3 4.602590923760000e-3 4.758691641050000e-3
4.920067418850000e-3 5.086895573660000e-3 5.259359323729999e-3 5.437647981530001e-3
5.621957152209999e-3 5.812488938270000e-3 6.009452150570000e-3 6.213062525809999e-3
6.423542950709999e-3 6.641123693240001e-3 6.866042640519999e-3 7.098545544390000e-3
7.338886274170000e-3 7.587327077060001e-3 7.844138846470000e-3 8.109601398230000e-3
8.384003755089999e-3 8.667644439660000e-3 8.960831775840001e-3 9.263884199280001e-3
9.577130576580000e-3 9.900910533940001e-3 1.023557479520000e-2 1.058148552940000e-2
1.093901670810000e-2 1.130855447350000e-2 1.169049751510000e-2 1.208525745890000e-2
1.249325926580000e-2 1.291494164060000e-2 1.335075745370000e-2 1.380117417200000e-2
1.426667430220000e-2 1.474775584560000e-2 1.524493276390000e-2 1.575873545770000e-2
1.628971125620000e-2 1.683842491910000e-2 1.740545915120000e-2 1.799141512810000e-2
1.859691303510000e-2 1.922259261850000e-2 1.986911374840000e-2 2.053715699480000e-2
2.122742421510000e-2 2.194063915480000e-2 2.267754805960000e-2 2.343892029980000e-2
2.422554900660000e-2 2.503825171990000e-2 2.587787104740000e-2 2.674527533500000e-2
2.764135934770000e-2 2.856704496030000e-2 2.952328185880000e-2 3.051104824989999e-2
3.153135157950000e-2 3.258522925929999e-2 3.367374939920000e-2 3.479801154700000e-2
3.595914743230000e-2 3.715832171430000e-2 3.839673273240000e-2 3.967561325740000e-2
4.099623124340001e-2 4.235989057660000e-2 4.376793182060000e-2 4.522173295580000e-2
4.672271011050000e-2 4.827231828210000e-2 4.987205204399999e-2 5.152344623750000e-2
5.322807664450000e-2 5.498756063740000e-2 5.680355780330000e-2 5.867777053820000e-2
6.061194460759999e-2 6.260786966700000e-2 6.466737974130000e-2 6.679235365239999e-2
6.898471539540001e-2 7.124643445200000e-2 7.357952603770000e-2 7.598605127560000e-2
7.846811728760001e-2 8.102787719689999e-2 8.366753003230000e-2 8.638932052530000e-2
8.919553878999999e-2 9.208851987720001e-2 9.507064318750000e-2 9.814433173670000e-2
1.013120512580000e-1 1.045763091280000e-1 1.079396531040000e-1 1.114046698500000e-1
1.149739832570000e-1 1.186502525070000e-1 1.224361698960000e-1 1.263344583760000e-1
1.303478688100000e-1 1.344791769020000e-1 1.387311798040000e-1 1.431066923560000e-1
1.476085429440000e-1 1.522395689540000e-1 1.570026117880000e-1 1.619005114180000e-1
1.669361004570000e-1 1.721121976990000e-1 1.774316011180000e-1 1.828970802780000e-1
1.885113681330000e-1 1.942771521710000e-1 2.001970648810000e-1 2.062736734890000e-1
2.125094689520000e-1 2.189068541420000e-1 2.254681312080000e-1 2.321954880680000e-1
2.390909839860000e-1 2.461565342140000e-1 2.533938936380000e-1 2.608046394160000e-1
2.683901525510000e-1 2.761515983790000e-1 2.840899059320000e-1 2.922057461480000e-1
3.004995089030000e-1 3.089712788430000e-1 3.176208099870000e-1 3.264474991010000e-1
3.354503578220000e-1 3.446279835480000e-1 3.539785290730000e-1 3.634996710180000e-1
3.731885770490000e-1 3.830418719430000e-1 3.930556025410000e-1 4.032252016540000e-1
4.135454510010000e-1 4.240104432700000e-1 4.346135434340000e-1 4.453473494290000e-1
4.562036523820000e-1 4.671733965440000e-1 4.782466391560000e-1 4.894125104690000e-1
5.006591741789999e-1 5.119737885899999e-1 5.233424688000000e-1 5.347502502980000e-1
5.461810543389999e-1 5.576176555390000e-1 5.690416521480000e-1 5.804334394860000e-1
5.917721870710000e-1 6.030358200200000e-1 6.142010052660000e-1 6.252431432440000e-1
6.361363656650000e-1 6.468535400089999e-1 6.573662814290000e-1 6.676449726840000e-1
6.776587927920001e-1 6.873757550010000e-1 6.967627546939999e-1 7.057856277930000e-1
7.144092201549999e-1 7.225974683990000e-1 7.303134925240000e-1 7.375197005670000e-1
7.441779054640000e-1 7.502494541480001e-1 7.556953688119999e-1 7.604765001450000e-1
7.645536922390001e-1 7.678879587890000e-1 7.704406701449999e-1 7.721737507680000e-1
7.730498866870001e-1 7.730327427040001e-1 7.720871893240000e-1 7.701795397430001e-1
7.672777977580000e-1 7.633519181270000e-1 7.583740817870001e-1 7.523189893610000e-1
7.451641776840000e-1 7.368903653510000e-1 7.274818348770000e-1 7.169268604250000e-1
7.052181913440000e-1 6.923536026400000e-1 6.783365235450000e-1 6.631767543300001e-1
6.468912786190000e-1 6.295051731810000e-1 6.110526085200000e-1 5.915779206660000e-1
5.711367161240000e-1 5.497969473039999e-1 5.276398634550000e-1 5.047607027290000e-1
4.812689442870000e-1 4.572878890620000e-1 4.329532885140000e-1 4.084107044680000e-1
3.838112777970000e-1 3.593056394190000e-1 3.350358636210000e-1 3.111257132250000e-1
2.876700730470000e-1 2.647255778230000e-1 2.423062627360000e-1 2.203909523610000e-1
1.989535785200000e-1 1.780256859730000e-1 1.577024252690000e-1 1.380853466760000e-1
1.192738753980000e-1 1.013638699170000e-1 8.444605830220000e-2 6.860434836890001e-2
5.391401269360000e-2 4.043977927320000e-2 2.823385723229999e-2 1.733396651240000e-2
7.761462827610000e-3 -4.802963313449999e-4 -7.407156212229999e-3 -1.305470637960000e-2
-1.747792140520000e-2 -2.074971965700000e-2 -2.295840792470000e-2 -2.420421151680000e-2
-2.459535418650000e-2 -2.424432485550000e-2 -2.326496212600000e-2 -2.177069665760000e-2
-1.987388104680000e-2 -1.768566702040000e-2 -1.531574531790000e-2 -1.287128479230000e-2
-1.045483240350000e-2 -8.161181979070001e-3 -6.073608727840001e-3 -4.259762429239999e-3
-2.767625428740000e-3 -1.621631196300000e-3 -8.192519107570002e-4 -3.284253746540000e-4
-8.725210670430000e-5 -9.106173363299998e-6 -1.786064496170001e-7 0.000000000000000e0
0.000000000000000e0 0.000000000000000e0 0.000000000000000e0 0.000000000000000e0
0.000000000000000e0 0.000000000000000e0 0.000000000000000e0 0.000000000000000e0
0.000000000000000e0 0.000000000000000e0 0.000000000000000e0 0.000000000000000e0
0.000000000000000e0 0.000000000000000e0 0.000000000000000e0 0.000000000000000e0
0.000000000000000e0 0.000000000000000e0 0.000000000000000e0 0.000000000000000e0
0.000000000000000e0 0.000000000000000e0 0.000000000000000e0 0.000000000000000e0
0.000000000000000e0 0.000000000000000e0 0.000000000000000e0 0.000000000000000e0
0.000000000000000e0 0.000000000000000e0 0.000000000000000e0 0.000000000000000e0
0.000000000000000e0 0.000000000000000e0 0.000000000000000e0 0.000000000000000e0
0.000000000000000e0 0.000000000000000e0 0.000000000000000e0 0.000000000000000e0
0.000000000000000e0 0.000000000000000e0 0.000000000000000e0 0.000000000000000e0
0.000000000000000e0 0.000000000000000e0 0.000000000000000e0 0.000000000000000e0
0.000000000000000e0 0.000000000000000e0 0.000000000000000e0 0.000000000000000e0
0.000000000000000e0 0.000000000000000e0 0.000000000000000e0 0.000000000000000e0
0.000000000000000e0 0.000000000000000e0 0.000000000000000e0 0.000000000000000e0
0.000000000000000e0 0.000000000000000e0 0.000000000000000e0 0.000000000000000e0
0.000000000000000e0 0.000000000000000e0 0.000000000000000e0 0.000000000000000e0
0.000000000000000e0 0.000000000000000e0 0.000000000000000e0 0.000000000000000e0
0.000000000000000e0 0.000000000000000e0 0.000000000000000e0 0.000000000000000e0
0.000000000000000e0 0.000000000000000e0 0.000000000000000e0 0.000000000000000e0
0.000000000000000e0 0.000000000000000e0 0.000000000000000e0 0.000000000000000e0
0.000000000000000e0 0.000000000000000e0 0.000000000000000e0 0.000000000000000e0
0.000000000000000e0 0.000000000000000e0 0.000000000000000e0 0.000000000000000e0
0.000000000000000e0 0.000000000000000e0 0.000000000000000e0 0.000000000000000e0
0.000000000000000e0 0.000000000000000e0 0.000000000000000e0 0.000000000000000e0
0.000000000000000e0 0.000000000000000e0 0.000000000000000e0 0.000000000000000e0
0.000000000000000e0 0.000000000000000e0 0.000000000000000e0 0.000000000000000e0
0.000000000000000e0 0.000000000000000e0 0.000000000000000e0 0.000000000000000e0
0.000000000000000e0 0.000000000000000e0 0.000000000000000e0 0.000000000000000e0
0.000000000000000e0 0.000000000000000e0 0.000000000000000e0 0.000000000000000e0
0.000000000000000e0 0.000000000000000e0 0.000000000000000e0 0.000000000000000e0
0.000000000000000e0 0.000000000000000e0 0.000000000000000e0 0.000000000000000e0
0.000000000000000e0 0.000000000000000e0 0.000000000000000e0 0.000000000000000e0
0.000000000000000e0 0.000000000000000e0 0.000000000000000e0 0.000000000000000e0
0.000000000000000e0 0.000000000000000e0 0.000000000000000e0 0.000000000000000e0
0.000000000000000e0 0.000000000000000e0 0.000000000000000e0 0.000000000000000e0
0.000000000000000e0 0.000000000000000e0 0.000000000000000e0 0.000000000000000e0
0.000000000000000e0 0.000000000000000e0 0.000000000000000e0 0.000000000000000e0
0.000000000000000e0 0.000000000000000e0 0.000000000000000e0 0.000000000000000e0
0.000000000000000e0 0.000000000000000e0 0.000000000000000e0 0.000000000000000e0
0.000000000000000e0 0.000000000000000e0 0.000000000000000e0 0.000000000000000e0
0.000000000000000e0 0.000000000000000e0 0.000000000000000e0 0.000000000000000e0
0.000000000000000e0 0.000000000000000e0 0.000000000000000e0 0.000000000000000e0
0.000000000000000e0 0.000000000000000e0 0.000000000000000e0 0.000000000000000e0
0.000000000000000e0 0.000000000000000e0 0.000000000000000e0 0.000000000000000e0
0.000000000000000e0 0.000000000000000e0 0.000000000000000e0 0.000000000000000e0
0.000000000000000e0 0.000000000000000e0 0.000000000000000e0 0.000000000000000e0
0.000000000000000e0 0.000000000000000e0 0.000000000000000e0 0.000000000000000e0
0.000000000000000e0 0.000000000000000e0 0.000000000000000e0 0.000000000000000e0
0.000000000000000e0 0.000000000000000e0 0.000000000000000e0 0.000000000000000e0
0.000000000000000e0 0.000000000000000e0 0.000000000000000e0 0.000000000000000e0
0.000000000000000e0 0.000000000000000e0 0.000000000000000e0 0.000000000000000e0
0.000000000000000e0 0.000000000000000e0 0.000000000000000e0 0.000000000000000e0
0.000000000000000e0 0.000000000000000e0 0.000000000000000e0 0.000000000000000e0
0.000000000000000e0 0.000000000000000e0 0.000000000000000e0 0.000000000000000e0
0.000000000000000e0 0.000000000000000e0 0.000000000000000e0 0.000000000000000e0
0.000000000000000e0 0.000000000000000e0 0.000000000000000e0 0.000000000000000e0
0.000000000000000e0 0.000000000000000e0 0.000000000000000e0 0.000000000000000e0
0.000000000000000e0 0.000000000000000e0 0.000000000000000e0 0.000000000000000e0
0.000000000000000e0 0.000000000000000e0 0.000000000000000e0 0.000000000000000e0
0.000000000000000e0 0.000000000000000e0 0.000000000000000e0 0.000000000000000e0
0.000000000000000e0 0.000000000000000e0 0.000000000000000e0 0.000000000000000e0
0.000000000000000e0 0.000000000000000e0 0.000000000000000e0 0.000000000000000e0
0.000000000000000e0 0.000000000000000e0 0.000000000000000e0 0.000000000000000e0
0.000000000000000e0 0.000000000000000e0 0.000000000000000e0 0.000000000000000e0
0.000000000000000e0 0.000000000000000e0 0.000000000000000e0 0.000000000000000e0
0.000000000000000e0 0.000000000000000e0 0.000000000000000e0 0.000000000000000e0
0.000000000000000e0 0.000000000000000e0 0.000000000000000e0 0.000000000000000e0
0.000000000000000e0 0.000000000000000e0 0.000000000000000e0 0.000000000000000e0
0.000000000000000e0 0.000000000000000e0 0.000000000000000e0 0.000000000000000e0
0.000000000000000e0 0.000000000000000e0 0.000000000000000e0 0.000000000000000e0
0.000000000000000e0 0.000000000000000e0 0.000000000000000e0
</PP_QIJ.4.4>
<PP_QIJ.4.5 first_index="4" second_index="5" composite_index="14">
0.000000000000000e0 -5.717514838130001e-18 -4.690292073229998e-17 -1.623328536450000e-16
-3.946258647790000e-16 -7.905123365420000e-16 -1.401120879370000e-15 -2.282282146810000e-15
-3.494851057520000e-15 -5.105048466769999e-15 -7.184823386910000e-15 -9.812236916239996e-15
-1.307186909850000e-14 -1.705525000250001e-14 -2.186131637910000e-14 -2.759689533100000e-14
-3.437721650210000e-14 -4.232645438059999e-14 -5.157830239310000e-14 -6.227658055839997e-14
-7.457587856420002e-14 -8.864223623280001e-14 -1.046538634440000e-13 -1.228019017000000e-13
-1.432912296270000e-13 -1.663413148380000e-13 -1.921871147160001e-13 -2.210800287880000e-13
-2.532889055520000e-13 -2.891011067139999e-13 -3.288236319920001e-13 -3.727843078150001e-13
-4.213330433690000e-13 -4.748431577119998e-13 -5.337127817930000e-13 -5.983663394740001e-13
-6.692561118470000e-13 -7.468638893670001e-13 -8.317027165710000e-13 -9.243187343979999e-13
-1.025293125400000e-12 -1.135244167400000e-12 -1.254829401480000e-12 -1.384747920430000e-12
-1.525742784220000e-12 -1.678603569270000e-12 -1.844169058769999e-12 -2.023330081630000e-12
-2.217032507999999e-12 -2.426280409890000e-12 -2.652139395550000e-12 -2.895740127180001e-12
-3.158282031519999e-12 -3.441037213889998e-12 -3.745354586350000e-12 -4.072664221600000e-12
-4.424481944550001e-12 -4.802414174340000e-12 -5.208163030020001e-12 -5.643531714149999e-12
-6.110430188920001e-12 -6.610881160519998e-12 -7.147026387950001e-12 -7.721133333820001e-12
-8.335602174920000e-12 -8.992973192040001e-12 -9.695934558840003e-12 -1.044733055110000e-11
-1.125017019880000e-11 -1.210763640360000e-11 -1.302309554790000e-11 -1.400010762020000e-11
-1.504243688410000e-11 -1.615406312029999e-11 -1.733919347210000e-11 -1.860227492470000e-11
-1.994800745350000e-11 -2.138135787560000e-11 -2.290757444210000e-11 -2.453220220990000e-11
-2.626109923400000e-11 -2.810045362399999e-11 -3.005680150960000e-11 -3.213704596310001e-11
-3.434847692990000e-11 -3.669879221830000e-11 -3.919611960640000e-11 -4.184904012250000e-11
-4.466661256280000e-11 -4.765839930900000e-11 -5.083449351620000e-11 -5.420554774090000e-11
-5.778280408610001e-11 -6.157812594180001e-11 -6.560403140570001e-11 -6.987372847020000e-11
-7.440115206989999e-11 -7.920100308610001e-11 -8.428878941019999e-11 -8.968086917430000e-11
-9.539449626210001e-11 -1.014478682190000e-10 -1.078601766850000e-10 -1.146516604880000e-10
-1.218436615280000e-10 -1.294586836020000e-10 -1.375204543240000e-10 -1.460539903040000e-10
-1.550856657440000e-10 -1.646432846400000e-10 -1.747561567830000e-10 -1.854551777330000e-10
-1.967729130050000e-10 -2.087436866580000e-10 -2.214036745310000e-10 -2.347910023699999e-10
-2.489458490870000e-10 -2.639105554270000e-10 -2.797297383320000e-10 -2.964504112750000e-10
-3.141221108970000e-10 -3.327970302659999e-10 -3.525301590939999e-10 -3.733794312900000e-10
-3.954058802130000e-10 -4.186738020360001e-10 -4.432509276360000e-10 -4.692086034560000e-10
-4.966219818020000e-10 -5.255702210620000e-10 -5.561366963699999e-10 -5.884092212460001e-10
-6.224802807880002e-10 -6.584472770080001e-10 -6.964127869560000e-10 -7.364848342690000e-10
-7.787771748649998e-10 -8.234095975049998e-10 -8.705082399869999e-10 -9.202059217859999e-10
-9.726424940030000e-10 -1.027965207490000e-9 -1.086329100120000e-9 -1.147897404180000e-9
-1.212841974940000e-9 -1.281343741440000e-9 -1.353593180740000e-9 -1.429790816780000e-9
-1.510147745080000e-9 -1.594886184760000e-9 -1.684240059110000e-9 -1.778455606370000e-9
-1.877792022090000e-9 -1.982522134880000e-9 -2.092933117160000e-9 -2.209327232740000e-9
-2.332022623170001e-9 -2.461354134819999e-9 -2.597674188800001e-9 -2.741353695970000e-9
-2.892783019310000e-9 -3.052372986110000e-9 -3.220555952609999e-9 -3.397786923700000e-9
-3.584544730600000e-9 -3.781333269440000e-9 -3.988682803990000e-9 -4.207151335710001e-9
-4.437326044690000e-9 -4.679824805139999e-9 -4.935297779160000e-9 -5.204429092990001e-9
-5.487938599870001e-9 -5.786583734010000e-9 -6.101161460369999e-9 -6.432510325219999e-9
-6.781512612589999e-9 -7.149096612129999e-9 -7.536239004150001e-9 -7.943967367790000e-9
-8.373362818699999e-9 -8.825562782940001e-9 -9.301763914060000e-9 -9.803225160779999e-9
-1.033127099300000e-8 -1.088729479420000e-8 -1.147276242910000e-8 -1.208921599530000e-8
-1.273827776830000e-8 -1.342165435030000e-8 -1.414114103260000e-8 -1.489862638380000e-8
-1.569609707360000e-8 -1.653564294590000e-8 -1.741946235340000e-8 -1.834986776730000e-8
-1.932929167570000e-8 -2.036029278680000e-8 -2.144556255129999e-8 -2.258793202080000e-8
-2.379037906000000e-8 -2.505603593040000e-8 -2.638819726460000e-8 -2.779032845160000e-8
-2.926607445370000e-8 -3.081926907810000e-8 -3.245394472550000e-8 -3.417434264089999e-8
-3.598492369260000e-8 -3.789037970570000e-8 -3.989564537970000e-8 -4.200591081890000e-8
-4.422663470889999e-8 -4.656355817050001e-8 -4.902271932710000e-8 -5.161046862169999e-8
-5.433348492240000e-8 -5.719879245670002e-8 -6.021377861700001e-8 -6.338621268230002e-8
-6.672426550349999e-8 -7.023653020119999e-8 -7.393204392809999e-8 -7.782031075150000e-8
-8.191132571220002e-8 -8.621560012130002e-8 -9.074418815760000e-8 -9.550871483360000e-8
-1.005214053990000e-7 -1.057951162570000e-7 -1.113433674680000e-7 -1.171803769290000e-7
-1.233210963060000e-7 -1.297812488140000e-7 -1.365773689430000e-7 -1.437268442240000e-7
-1.512479591370000e-7 -1.591599412860000e-7 -1.674830099380000e-7 -1.762384270610000e-7
-1.854485509840000e-7 -1.951368928160000e-7 -2.053281757590000e-7 -2.160483974780000e-7
-2.273248956640000e-7 -2.391864169770000e-7 -2.516631895210000e-7 -2.647869990480000e-7
-2.785912690790000e-7 -2.931111451300001e-7 -3.083835832769999e-7 -3.244474432600000e-7
-3.413435863770000e-7 -3.591149783960001e-7 -3.778067977650000e-7 -3.974665493620001e-7
-4.181441841020001e-7 -4.398922246780000e-7 -4.627658977570000e-7 -4.868232729630001e-7
-5.121254090050000e-7 -5.387365072890001e-7 -5.667240734360001e-7 -5.961590870719999e-7
-6.271161803489999e-7 -6.596738256180000e-7 -6.939145327369999e-7 -7.299250565109999e-7
-7.677966147699999e-7 -8.076251176400000e-7 -8.495114085830002e-7 -8.935615177999999e-7
-9.398869286340000e-7 -9.886048576529999e-7 -1.039838549090000e-6 -1.093717584370000e-6
-1.150378207600000e-6 -1.209963667600000e-6 -1.272624577660000e-6 -1.338519293570000e-6
-1.407814311220000e-6 -1.480684684400000e-6 -1.557314464200000e-6 -1.637897160810000e-6
-1.722636229070000e-6 -1.811745578890000e-6 -1.905450111850000e-6 -2.003986285280000e-6
-2.107602705320000e-6 -2.216560750270000e-6 -2.331135226010001e-6 -2.451615054930000e-6
-2.578304000200000e-6 -2.711521427149999e-6 -2.851603103610000e-6 -2.998902041400000e-6
-3.153789380729999e-6 -3.316655320069999e-6 -3.487910093610000e-6 -3.667984998709999e-6
-3.857333476060000e-6 -4.056432245160001e-6 -4.265782497830001e-6 -4.485911152989999e-6
-4.717372175560000e-6 -4.960747962930000e-6 -5.216650802360000e-6 -5.485724403069999e-6
-5.768645506610000e-6 -6.066125579720000e-6 -6.378912593770001e-6 -6.707792895280001e-6
-7.053593172070000e-6 -7.417182520010001e-6 -7.799474615469999e-6 -8.201429998850001e-6
-8.624058474870001e-6 -9.068421635550001e-6 -9.535635512220001e-6 -1.002687336300000e-5
-1.054336860270000e-5 -1.108641788270000e-5 -1.165738432750000e-5 -1.225770093750000e-5
-1.288887416480000e-5 -1.355248767200000e-5 -1.425020628270000e-5 -1.498378013390000e-5
-1.575504903990000e-5 -1.656594707900000e-5 -1.741850741480000e-5 -1.831486736250000e-5
-1.925727371400000e-5 -2.024808833440000e-5 -2.128979404410000e-5 -2.238500080000000e-5
-2.353645219210000e-5 -2.474703227110000e-5 -2.601977272300000e-5 -2.735786040979999e-5
-2.876464529370000e-5 -3.024364876390000e-5 -3.179857238810000e-5 -3.343330710790000e-5
-3.515194290240001e-5 -3.695877894280000e-5 -3.885833426240000e-5 -4.085535896940000e-5
-4.295484602780000e-5 -4.516204363749999e-5 -4.748246824129999e-5 -4.992191819210000e-5
-5.248648811300001e-5 -5.518258398480000e-5 -5.801693899760000e-5 -6.099663020520001e-5
-6.412909602210000e-5 -6.742215460559999e-5 -7.088402316720000e-5 -7.452333825920001e-5
-7.834917708750000e-5 -8.237107989790001e-5 -8.659907349370000e-5 -9.104369593790002e-5
-9.571602250060000e-5 -1.006276929120000e-4 -1.057909399910000e-4 -1.112186197030000e-4
-1.169242427460000e-4 -1.229220077030000e-4 -1.292268358720000e-4 -1.358544078380000e-4
-1.428212018790000e-4 -1.501445342890000e-4 -1.578426017240000e-4 -1.659345256670000e-4
-1.744403991010000e-4 -1.833813355250000e-4 -1.927795203990000e-4 -2.026582651640000e-4
-2.130420639340000e-4 -2.239566530170000e-4 -2.354290733800000e-4 -2.474877362150000e-4
-2.601624917509999e-4 -2.734847014620000e-4 -2.874873138470000e-4 -3.022049439440000e-4
-3.176739567570000e-4 -3.339325547850000e-4 -3.510208698530000e-4 -3.689810594330000e-4
-3.878574076900000e-4 -4.076964314530001e-4 -4.285469913620000e-4 -4.504604084189999e-4
-4.734905861980000e-4 -4.976941389910000e-4 -5.231305261390000e-4 -5.498621928580000e-4
-5.779547178460000e-4 -6.074769679769999e-4 -6.385012604210000e-4 -6.711035325070000e-4
-7.053635196919999e-4 -7.413649419880000e-4 -7.791956992420000e-4 -8.189480756360000e-4
-8.607189538339998e-4 -9.046100391920000e-4 -9.507280944600002e-4 -9.991851854430001e-4
-1.050098938080000e-3 -1.103592807420000e-3 -1.159796359030000e-3 -1.218845563300000e-3
-1.280883103230000e-3 -1.346058696230000e-3 -1.414529430440000e-3 -1.486460116340000e-3
-1.562023653990000e-3 -1.641401416720000e-3 -1.724783651840000e-3 -1.812369898970000e-3
-1.904369426730000e-3 -2.001001688370000e-3 -2.102496797170000e-3 -2.209096022110000e-3
-2.321052304740000e-3 -2.438630797780000e-3 -2.562109426270000e-3 -2.691779472000000e-3
-2.827946181870000e-3 -2.970929401060000e-3 -3.121064231540000e-3 -3.278701716800001e-3
-3.444209553460000e-3 -3.617972830370000e-3 -3.800394796020000e-3 -3.991897654760001e-3
-4.192923392559999e-3 -4.403934632800000e-3 -4.625415522670000e-3 -4.857872650610000e-3
-5.101835995289999e-3 -5.357859906340000e-3 -5.626524117190001e-3 -5.908434790149999e-3
-6.204225593750000e-3 -6.514558812280001e-3 -6.840126487389999e-3 -7.181651591280001e-3
-7.539889230960001e-3 -7.915627882940001e-3 -8.309690657250000e-3 -8.722936589770001e-3
-9.156261961240000e-3 -9.610601641360001e-3 -1.008693045580000e-2 -1.058626457390000e-2
-1.110966291380000e-2 -1.165822856240000e-2 -1.223311020570000e-2 -1.283550356660000e-2
-1.346665284330000e-2 -1.412785214540000e-2 -1.482044691980000e-2 -1.554583536040000e-2
-1.630546979470000e-2 -1.710085803770000e-2 -1.793356470530000e-2 -1.880521247620000e-2
-1.971748329110000e-2 -2.067211947770000e-2 -2.167092478750000e-2 -2.271576532990000e-2
-2.380857038720000e-2 -2.495133309380000e-2 -2.614611096040000e-2 -2.739502622210000e-2
-2.870026598910000e-2 -3.006408217560000e-2 -3.148879118060000e-2 -3.297677329430000e-2
-3.453047179840000e-2 -3.615239172990000e-2 -3.784509827400000e-2 -3.961121474920000e-2
-4.145342014730000e-2 -4.337444618600000e-2 -4.537707383140000e-2 -4.746412924630000e-2
-4.963847911319999e-2 -5.190302528480000e-2 -5.426069870810000e-2 -5.671445256700000e-2
-5.926725458800000e-2 -6.192207844930000e-2 -6.468189423400000e-2 -6.754965786440000e-2
-7.052829945680000e-2 -7.362071053190000e-2 -7.682973001660000e-2 -8.015812897640000e-2
-8.360859401310000e-2 -8.718370926730000e-2 -9.088593696860002e-2 -9.471759647419999e-2
-9.868084174690001e-2 -1.027776372230000e-1 -1.070097320290000e-1 -1.113786325150000e-1
-1.158855730690000e-1 -1.205314852110000e-1 -1.253169649400000e-1 -1.302422383560000e-1
-1.353071255590000e-1 -1.405110028660000e-1 -1.458527633880000e-1 -1.513307760280000e-1
-1.569428429730000e-1 -1.626861557840000e-1 -1.685572501870000e-1 -1.745519596970000e-1
-1.806653682220000e-1 -1.868917618040000e-1 -1.932245796810000e-1 -1.996563648550000e-1
-2.061787143790000e-1 -2.127822295770000e-1 -2.194564664240000e-1 -2.261898863340000e-1
-2.329698075990000e-1 -2.397823577590000e-1 -2.466124271810000e-1 -2.534436241650000e-1
-2.602582319340000e-1 -2.670371679170000e-1 -2.737599458240000e-1 -2.804046411210000e-1
-2.869478606730000e-1 -2.933647175420000e-1 -2.996288122040000e-1 -3.057122217930000e-1
-3.115854994820000e-1 -3.172176865930000e-1 -3.225763407770000e-1 -3.276275843140000e-1
-3.323361774900000e-1 -3.366656229380000e-1 -3.405783077580000e-1 -3.440356911000000e-1
-3.469985455290000e-1 -3.494272606960000e-1 -3.512822173780000e-1 -3.525242384250000e-1
-3.531151201790000e-1 -3.530182429160000e-1 -3.521992512830000e-1 -3.506267848900000e-1
-3.482732247970000e-1 -3.451154032920000e-1 -3.411352027400000e-1 -3.363199460330000e-1
-3.306624601590000e-1 -3.241606830630000e-1 -3.168166952720000e-1 -3.086351134760000e-1
-2.996209188420000e-1 -2.897770638650000e-1 -2.791026945200000e-1 -2.675936706930000e-1
-2.552484650730000e-1 -2.420827924900000e-1 -2.281339872060000e-1 -2.134504819340000e-1
-1.980907447030000e-1 -1.821236634150000e-1 -1.656288103380000e-1 -1.486965662070000e-1
-1.314280482220000e-1 -1.139348083020000e-1 -9.633822786400000e-2 -7.876855582059999e-2
-6.136350463159999e-2 -4.426635070620000e-2 -2.762349042000000e-2 -1.158147725490000e-2
3.716354056760001e-3 1.813344134040000e-2 3.154336766590000e-2 4.383262745970001e-2
5.490238155900000e-2 6.466900563209999e-2 7.306350688050001e-2 8.003025459470001e-2
8.552562476829999e-2 8.951722390510000e-2 9.198408020390001e-2 9.291799410039999e-2
9.232592772360000e-2 9.023335442210000e-2 8.668845521129999e-2 8.176728307670000e-2
7.557994511720000e-2 6.827784243550000e-2 6.006152197710000e-2 5.118811418360001e-2
4.197619614650000e-2 3.280459582360000e-2 2.409995594350000e-2 1.630671555250000e-2
9.838686352290001e-3 5.009951336079999e-3 1.937975548230000e-3 4.458777104209999e-4
2.611574022270000e-5 0.000000000000000e0 0.000000000000000e0 0.000000000000000e0
0.000000000000000e0 0.000000000000000e0 0.000000000000000e0 0.000000000000000e0
0.000000000000000e0 0.000000000000000e0 0.000000000000000e0 0.000000000000000e0
0.000000000000000e0 0.000000000000000e0 0.000000000000000e0 0.000000000000000e0
0.000000000000000e0 0.000000000000000e0 0.000000000000000e0 0.000000000000000e0
0.000000000000000e0 0.000000000000000e0 0.000000000000000e0 0.000000000000000e0
0.000000000000000e0 0.000000000000000e0 0.000000000000000e0 0.000000000000000e0
0.000000000000000e0 0.000000000000000e0 0.000000000000000e0 0.000000000000000e0
0.000000000000000e0 0.000000000000000e0 0.000000000000000e0 0.000000000000000e0
0.000000000000000e0 0.000000000000000e0 0.000000000000000e0 0.000000000000000e0
0.000000000000000e0 0.000000000000000e0 0.000000000000000e0 0.000000000000000e0
0.000000000000000e0 0.000000000000000e0 0.000000000000000e0 0.000000000000000e0
0.000000000000000e0 0.000000000000000e0 0.000000000000000e0 0.000000000000000e0
0.000000000000000e0 0.000000000000000e0 0.000000000000000e0 0.000000000000000e0
0.000000000000000e0 0.000000000000000e0 0.000000000000000e0 0.000000000000000e0
0.000000000000000e0 0.000000000000000e0 0.000000000000000e0 0.000000000000000e0
0.000000000000000e0 0.000000000000000e0 0.000000000000000e0 0.000000000000000e0
0.000000000000000e0 0.000000000000000e0 0.000000000000000e0 0.000000000000000e0
0.000000000000000e0 0.000000000000000e0 0.000000000000000e0 0.000000000000000e0
0.000000000000000e0 0.000000000000000e0 0.000000000000000e0 0.000000000000000e0
0.000000000000000e0 0.000000000000000e0 0.000000000000000e0 0.000000000000000e0
0.000000000000000e0 0.000000000000000e0 0.000000000000000e0 0.000000000000000e0
0.000000000000000e0 0.000000000000000e0 0.000000000000000e0 0.000000000000000e0
0.000000000000000e0 0.000000000000000e0 0.000000000000000e0 0.000000000000000e0
0.000000000000000e0 0.000000000000000e0 0.000000000000000e0 0.000000000000000e0
0.000000000000000e0 0.000000000000000e0 0.000000000000000e0 0.000000000000000e0
0.000000000000000e0 0.000000000000000e0 0.000000000000000e0 0.000000000000000e0
0.000000000000000e0 0.000000000000000e0 0.000000000000000e0 0.000000000000000e0
0.000000000000000e0 0.000000000000000e0 0.000000000000000e0 0.000000000000000e0
0.000000000000000e0 0.000000000000000e0 0.000000000000000e0 0.000000000000000e0
0.000000000000000e0 0.000000000000000e0 0.000000000000000e0 0.000000000000000e0
0.000000000000000e0 0.000000000000000e0 0.000000000000000e0 0.000000000000000e0
0.000000000000000e0 0.000000000000000e0 0.000000000000000e0 0.000000000000000e0
0.000000000000000e0 0.000000000000000e0 0.000000000000000e0 0.000000000000000e0
0.000000000000000e0 0.000000000000000e0 0.000000000000000e0 0.000000000000000e0
0.000000000000000e0 0.000000000000000e0 0.000000000000000e0 0.000000000000000e0
0.000000000000000e0 0.000000000000000e0 0.000000000000000e0 0.000000000000000e0
0.000000000000000e0 0.000000000000000e0 0.000000000000000e0 0.000000000000000e0
0.000000000000000e0 0.000000000000000e0 0.000000000000000e0 0.000000000000000e0
0.000000000000000e0 0.000000000000000e0 0.000000000000000e0 0.000000000000000e0
0.000000000000000e0 0.000000000000000e0 0.000000000000000e0 0.000000000000000e0
0.000000000000000e0 0.000000000000000e0 0.000000000000000e0 0.000000000000000e0
0.000000000000000e0 0.000000000000000e0 0.000000000000000e0 0.000000000000000e0
0.000000000000000e0 0.000000000000000e0 0.000000000000000e0 0.000000000000000e0
0.000000000000000e0 0.000000000000000e0 0.000000000000000e0 0.000000000000000e0
0.000000000000000e0 0.000000000000000e0 0.000000000000000e0 0.000000000000000e0
0.000000000000000e0 0.000000000000000e0 0.000000000000000e0 0.000000000000000e0
0.000000000000000e0 0.000000000000000e0 0.000000000000000e0 0.000000000000000e0
0.000000000000000e0 0.000000000000000e0 0.000000000000000e0 0.000000000000000e0
0.000000000000000e0 0.000000000000000e0 0.000000000000000e0 0.000000000000000e0
0.000000000000000e0 0.000000000000000e0 0.000000000000000e0 0.000000000000000e0
0.000000000000000e0 0.000000000000000e0 0.000000000000000e0 0.000000000000000e0
0.000000000000000e0 0.000000000000000e0 0.000000000000000e0 0.000000000000000e0
0.000000000000000e0 0.000000000000000e0 0.000000000000000e0 0.000000000000000e0
0.000000000000000e0 0.000000000000000e0 0.000000000000000e0 0.000000000000000e0
0.000000000000000e0 0.000000000000000e0 0.000000000000000e0 0.000000000000000e0
0.000000000000000e0 0.000000000000000e0 0.000000000000000e0 0.000000000000000e0
0.000000000000000e0 0.000000000000000e0 0.000000000000000e0 0.000000000000000e0
0.000000000000000e0 0.000000000000000e0 0.000000000000000e0 0.000000000000000e0
0.000000000000000e0 0.000000000000000e0 0.000000000000000e0 0.000000000000000e0
0.000000000000000e0 0.000000000000000e0 0.000000000000000e0 0.000000000000000e0
0.000000000000000e0 0.000000000000000e0 0.000000000000000e0 0.000000000000000e0
0.000000000000000e0 0.000000000000000e0 0.000000000000000e0 0.000000000000000e0
0.000000000000000e0 0.000000000000000e0 0.000000000000000e0 0.000000000000000e0
0.000000000000000e0 0.000000000000000e0 0.000000000000000e0 0.000000000000000e0
0.000000000000000e0 0.000000000000000e0 0.000000000000000e0 0.000000000000000e0
0.000000000000000e0 0.000000000000000e0 0.000000000000000e0 0.000000000000000e0
0.000000000000000e0 0.000000000000000e0 0.000000000000000e0 0.000000000000000e0
0.000000000000000e0 0.000000000000000e0 0.000000000000000e0 0.000000000000000e0
0.000000000000000e0 0.000000000000000e0 0.000000000000000e0 0.000000000000000e0
0.000000000000000e0 0.000000000000000e0 0.000000000000000e0
</PP_QIJ.4.5>
<PP_QIJ.4.6 first_index="4" second_index="6" composite_index="19">
0.000000000000000e0 1.085839320000000e-17 8.907547596459997e-17 3.082937262180000e-16
7.494519783480001e-16 1.501298032910000e-15 2.660932565909999e-15 4.334386117889999e-15
6.637231040420001e-15 9.695230379979998e-15 1.364502578750000e-14 1.863486665490000e-14
2.482538280110000e-14 3.239040315390000e-14 4.151782300990001e-14 5.241052259159998e-14
6.528733977120000e-14 8.038409998280002e-14 9.795470651040000e-14 1.182722945110000e-13
1.416304523110000e-13 1.683445137100001e-13 1.987529252190000e-13 2.332186923810001e-13
2.721309095390000e-13 3.159063776490000e-13 3.649913149879999e-13 4.198631658689999e-13
4.810325127329999e-13 5.490450972990001e-13 6.244839567389999e-13 7.079716811679999e-13
8.001727990860003e-13 9.017962977379998e-13 1.013598285770000e-12 1.136384805890000e-12
1.271014805740000e-12 1.418403275560000e-12 1.579524561620000e-12 1.755415865090000e-12
1.947180936240000e-12 2.155993974700000e-12 2.383103746720000e-12 2.629837931290000e-12
2.897607707500000e-12 3.187912595920000e-12 3.502345567970000e-12 3.842598437439999e-12
4.210467549489999e-12 4.607859783020000e-12 5.036798883299999e-12 5.499432142430001e-12
5.998037446449999e-12 6.535030708559999e-12 7.112973709170001e-12 7.734582364560001e-12
8.402735446940001e-12 9.120483780109998e-12 9.891059936000001e-12 1.071788845880000e-11
1.160459664480000e-11 1.255502590750000e-11 1.357324375910000e-11 1.466355644120001e-11
1.583052223910000e-11 1.707896551560000e-11 1.841399150410000e-11 1.984100189830000e-11
2.136571128400000e-11 2.299416445520000e-11 2.473275466210001e-11 2.658824284090000e-11
2.856777787630000e-11 3.067891795140000e-11 3.292965304360000e-11 3.532842862529999e-11
3.788417063380000e-11 4.060631177799999e-11 4.350481925080000e-11 4.659022392220000e-11
4.987365109170001e-11 5.336685288000000e-11 5.708224234900000e-11 6.103292943790001e-11
6.523275881400002e-11 6.969634973579999e-11 7.443913803690000e-11 7.947742033939999e-11
8.482840061539999e-11 9.051023921999997e-11 9.654210452359999e-11 1.029442272810000e-10
1.097379578830000e-10 1.169458266329999e-10 1.245916072210000e-10 1.327003835470000e-10
1.412986200790001e-10 1.504142359300000e-10 1.600766828430000e-10 1.703170272920000e-10
1.811680369120000e-10 1.926642714890000e-10 2.048421787430000e-10 2.177401951500000e-10
2.313988520850000e-10 2.458608875319999e-10 2.611713636839999e-10 2.773777907220000e-10
2.945302570910000e-10 3.126815666280001e-10 3.318873828860001e-10 3.522063810310001e-10
3.737004077129999e-10 3.964346493099999e-10 4.204778090070000e-10 4.459022931380000e-10
4.727844072999998e-10 5.012045627290000e-10 5.312474934830000e-10 5.630024849849999e-10
5.965636145210000e-10 6.320300043150000e-10 6.695060878270000e-10 7.091018899739998e-10
7.509333219760000e-10 7.951224916140003e-10 8.417980296700001e-10 8.910954334100001e-10
9.431574279840000e-10 9.981343466780000e-10 1.056184530990000e-9 1.117474751550000e-9
1.182180651000000e-9 1.250487209920000e-9 1.322589237030000e-9 1.398691884900000e-9
1.479011192540000e-9 1.563774656230000e-9 1.653221829940000e-9 1.747604957150000e-9
1.847189635420000e-9 1.952255515490000e-9 2.063097036780000e-9 2.180024201110000e-9
2.303363386569999e-9 2.433458203680000e-9 2.570670396020000e-9 2.715380787610000e-9
2.867990279510000e-9 3.028920898020000e-9 3.198616897440000e-9 3.377545919850000e-9
3.566200215210000e-9 3.765097924600000e-9 3.974784430060000e-9 4.195833774370000e-9
4.428850154430000e-9 4.674469492000000e-9 4.933361085819998e-9 5.206229349330000e-9
5.493815638320000e-9 5.796900173319999e-9 6.116304061390000e-9 6.452891422629998e-9
6.807571626810000e-9 7.181301645560001e-9 7.575088526439999e-9 7.989991994890000e-9
8.427127190759997e-9 8.887667546429999e-9 9.372847813630001e-9 9.883967246899999e-9
1.042239295140000e-8 1.098956340410000e-8 1.158699215630000e-8 1.221627172840000e-8
1.287907770480000e-8 1.357717304150000e-8 1.431241259510000e-8 1.508674788620000e-8
1.590223210920000e-8 1.676102539970000e-8 1.766540037500000e-8 1.861774795970000e-8
1.962058351230000e-8 2.067655326840000e-8 2.178844111550001e-8 2.295917571810000e-8
2.419183801000000e-8 2.548966907330000e-8 2.685607842380000e-8 2.829465272320000e-8
2.980916494160000e-8 3.140358399150000e-8 3.308208485890001e-8 3.484905925650001e-8
3.670912682670000e-8 3.866714692119999e-8 4.072823098830000e-8 4.289775559800000e-8
4.518137613930000e-8 4.758504122200000e-8 5.011500782150000e-8 5.277785720290000e-8
5.558051166690000e-8 5.853025215619999e-8 6.163473677040000e-8 6.490202023339999e-8
6.834057436410001e-8 7.195930960030000e-8 7.576759763149999e-8 7.977529519670002e-8
8.399276910699999e-8 8.843092255689998e-8 9.310122278950001e-8 9.801573018529998e-8
1.031871288490000e-7 1.086287587700000e-7 1.143546496350000e-7 1.203795563880000e-7
1.267189966110000e-7 1.333892898310000e-7 1.404075988540000e-7 1.477919732180000e-7
1.555613948850000e-7 1.637358262830000e-7 1.723362608180000e-7 1.813847759850000e-7
1.909045892050000e-7 2.009201165450000e-7 2.114570344450000e-7 2.225423446230000e-7
2.342044423210000e-7 2.464731880540000e-7 2.593799830510000e-7 2.729578485699999e-7
2.872415092970000e-7 3.022674810240000e-7 3.180741628370000e-7 3.347019340410000e-7
3.521932560680000e-7 3.705927796180000e-7 3.899474573120000e-7 4.103066621220000e-7
4.317223118999999e-7 4.542490002920000e-7 4.779441343880000e-7 5.028680794370000e-7
5.290843109980001e-7 5.566595749039999e-7 5.856640554490000e-7 6.161715522059998e-7
6.482596659270000e-7 6.820099939970000e-7 7.175083359189999e-7 7.548449093490000e-7
7.941145772310001e-7 8.354170865890001e-7 8.788573195829999e-7 9.245455574510000e-7
9.725977580059999e-7 1.023135847370000e-6 1.076288026690000e-6 1.132189094610000e-6
1.190980786270000e-6 1.252812129700000e-6 1.317839820560000e-6 1.386228616040000e-6
1.458151749030000e-6 1.533791363490000e-6 1.613338972240000e-6 1.696995938120000e-6
1.784973979970000e-6 1.877495704460000e-6 1.974795165280000e-6 2.077118450960000e-6
2.184724302870000e-6 2.297884764920000e-6 2.416885866570000e-6 2.542028340889999e-6
2.673628379420000e-6 2.812018425750000e-6 2.957548009790000e-6 3.110584624840000e-6
3.271514649579999e-6 3.440744317399999e-6 3.618700735320001e-6 3.805832955250000e-6
4.002613100100000e-6 4.209537547590000e-6 4.427128174820000e-6 4.655933666499999e-6
4.896530890300000e-6 5.149526342680001e-6 5.415557668709999e-6 5.695295259890000e-6
5.989443933680000e-6 6.298744699160002e-6 6.623976613080000e-6 6.965958730990001e-6
7.325552158290000e-6 7.703662206290001e-6 8.101240658629999e-6 8.519288153850001e-6
8.958856689789998e-6 9.421052256259999e-6 9.907037602469998e-6 1.041803514600000e-5
1.095533003070000e-5 1.152027334110000e-5 1.211428548100000e-5 1.273885972540000e-5
1.339556595350000e-5 1.408605457290000e-5 1.481206064480000e-5 1.557540821920000e-5
1.637801489300000e-5 1.722189659970000e-5 1.810917264520000e-5 1.904207099960000e-5
2.002293386070000e-5 2.105422350090000e-5 2.213852841260000e-5 2.327856976820000e-5
2.447720820910000e-5 2.573745098220000e-5 2.706245943930000e-5 2.845555692100000e-5
2.992023704100000e-5 3.146017239460000e-5 3.307922371010000e-5 3.478144946790000e-5
3.657111600870000e-5 3.845270815870000e-5 4.043094039390001e-5 4.251076857570000e-5
4.469740228200000e-5 4.699631776760000e-5 4.941327158389999e-5 5.195431489150000e-5
5.462580850130000e-5 5.743443868079999e-5 6.038723376339999e-5 6.349158160290001e-5
6.675524791420000e-5 7.018639554589999e-5 7.379360473220000e-5 7.758589437190000e-5
8.157274438750001e-5 8.576411921920000e-5 9.017049250910000e-5 9.480287303710000e-5
9.967283197110000e-5 1.047925314970000e-4 1.101747548960000e-4 1.158329381490000e-4
1.217812031330000e-4 1.280343925000000e-4 1.346081063130000e-4 1.415187405430000e-4
1.487835274900000e-4 1.564205782650000e-4 1.644489273950000e-4 1.728885796850000e-4
1.817605594370000e-4 1.910869621450000e-4 2.008910087910000e-4 2.111971028630000e-4
2.220308902450000e-4 2.334193221060000e-4 2.453907209400000e-4 2.579748499230000e-4
2.712029857270000e-4 2.851079949920000e-4 2.997244146020000e-4 3.150885359820000e-4
3.312384935930001e-4 3.482143578300000e-4 3.660582325550000e-4 3.848143574720000e-4
4.045292155809999e-4 4.252516459750000e-4 4.470329622140000e-4 4.699270765590000e-4
4.939906303520000e-4 5.192831308170000e-4 5.458670946220000e-4 5.738081984870000e-4
6.031754372060000e-4 6.340412894200000e-4 6.664818915040000e-4 7.005772199689999e-4
7.364112827620000e-4 7.740723198870000e-4 8.136530137919999e-4 8.552507099640000e-4
8.989676482170001e-4 9.449112051580000e-4 9.931941483510000e-4 1.043934902730000e-3
1.097257829760000e-3 1.153293520070000e-3 1.212179099920000e-3 1.274058552420000e-3
1.339083053950000e-3 1.407411326490000e-3 1.479210006640000e-3 1.554654032040000e-3
1.633927045900000e-3 1.717221820430000e-3 1.804740700070000e-3 1.896696065250000e-3
1.993310817710000e-3 2.094818888030000e-3 2.201465766580000e-3 2.313509058680000e-3
2.431219065020000e-3 2.554879388320001e-3 2.684787567360000e-3 2.821255739370000e-3
2.964611331940000e-3 3.115197785610000e-3 3.273375308180000e-3 3.439521662110001e-3
3.614032986100000e-3 3.797324652070000e-3 3.989832158870000e-3 4.192012064020000e-3
4.404342954560000e-3 4.627326458620001e-3 4.861488298760000e-3 5.107379388490000e-3
5.365576973300000e-3 5.636685817490000e-3 5.921339438020000e-3 6.220201386750000e-3
6.533966582270000e-3 6.863362692480001e-3 7.209151569139999e-3 7.572130735520000e-3
7.953134928010000e-3 8.353037692900001e-3 8.772753038939999e-3 9.213237146590000e-3
9.675490134450000e-3 1.016055788350000e-2 1.066953391900000e-2 1.120356135110000e-2
1.176383487270000e-2 1.235160281520000e-2 1.296816926160000e-2 1.361489621450000e-2
1.429320582020000e-2 1.500458264440000e-2 1.575057600000000e-2 1.653280232210000e-2
1.735294758910000e-2 1.821276978490000e-2 1.911410139820000e-2 2.005885195440000e-2
2.104901057380000e-2 2.208664854970000e-2 2.317392193910000e-2 2.431307415740000e-2
2.550643856740000e-2 2.675644105280000e-2 2.806560256270000e-2 2.943654161570000e-2
3.087197674780000e-2 3.237472888740000e-2 3.394772364090000e-2 3.559399346780000e-2
3.731667972379999e-2 3.911903454920001e-2 4.100442257400000e-2 4.297632241480000e-2
4.503832792940000e-2 4.719414919710000e-2 4.944761318800000e-2 5.180266408180000e-2
5.426336319310000e-2 5.683388845820000e-2 5.951853343290000e-2 6.232170574920000e-2
6.524792497340000e-2 6.830181980610001e-2 7.148812455700000e-2 7.481167482880000e-2
7.827740233420000e-2 8.189032877059999e-2 8.565555866910001e-2 8.957827113319999e-2
9.366371037570000e-2 9.791717495910001e-2 1.023440056410000e-1 1.069495717220000e-1
1.117392557880000e-1 1.167184367400000e-1 1.218924709950000e-1 1.272666717450000e-1
1.328462861550000e-1 1.386364703880000e-1 1.446422623260000e-1 1.508685518810000e-1
1.573200487740000e-1 1.640012476730000e-1 1.709163905700000e-1 1.780694263120000e-1
1.854639671730000e-1 1.931032423950000e-1 2.009900486150000e-1 2.091266971210000e-1
2.175149578970000e-1 2.261560004180000e-1 2.350503312130000e-1 2.441977281870000e-1
2.535971717780000e-1 2.632467729900000e-1 2.731436984460000e-1 2.832840925710000e-1
2.936629970900000e-1 3.042742680780000e-1 3.151104907820000e-1 3.261628925480000e-1
3.374212541790000e-1 3.488738201120000e-1 3.605072078510000e-1 3.723063171300000e-1
3.842542393320000e-1 3.963321677220000e-1 4.085193091200000e-1 4.207927976530000e-1
4.331276113070000e-1 4.454964920250000e-1 4.578698701670000e-1 4.702157942040000e-1
4.824998666180000e-1 4.946851870700000e-1 5.067323040290001e-1 5.185991762500000e-1
5.302411456860000e-1 5.416109237530000e-1 5.526585931920000e-1 5.633316283010000e-1
5.735749368450000e-1 5.833309276890000e-1 5.925396090370000e-1 6.011387231080000e-1
6.090639241500000e-1 6.162490078260000e-1 6.226262010819999e-1 6.281265225779999e-1
6.326802243310000e-1 6.362173252680000e-1 6.386682463560000e-1 6.399645546329999e-1
6.400398189730000e-1 6.388305733200000e-1 6.362773724880000e-1 6.323259107680000e-1
6.269281539520000e-1 6.200434107810000e-1 6.116392412070000e-1 6.016920686600001e-1
5.901873373680000e-1 5.771190439910000e-1 5.624884936170000e-1 5.463022136350000e-1
5.285691539350000e-1 5.092976846950000e-1 4.884935919720000e-1 4.661614459480000e-1
4.423136459950000e-1 4.169916952670000e-1 3.902722072120000e-1 3.622515146580000e-1
3.330441328450000e-1 3.027832395160000e-1 2.716208994010000e-1 2.397279912390000e-1
2.072937519190000e-1 1.745248878120000e-1 1.416441591510000e-1 1.088883837640000e-1
7.650578444570000e-2 4.475266754320001e-2 1.388945228280000e-2 -1.582381840190000e-2
-4.413225265339999e-2 -7.079080884270001e-2 -9.556847856830000e-2 -1.182515398240000e-1
-1.386456121780000e-1 -1.565765633230000e-1 -1.718906256560000e-1 -1.844543703390000e-1
-1.941551825070000e-1 -2.009027506840000e-1 -2.046317386250000e-1 -2.053056413900000e-1
-2.029217445600000e-1 -1.975173315890000e-1 -1.891774895400000e-1 -1.780450764220000e-1
-1.643333115160000e-1 -1.483410451390000e-1 -1.304698613820000e-1 -1.112407353360000e-1
-9.130597695630000e-2 -7.144976717930001e-2 -5.256828052040000e-2 -3.561881852970000e-2
-2.151786504930000e-2 -1.096955512630000e-2 -4.247598810680000e-3 -9.781373056190001e-4
-5.729820480180000e-5 0.000000000000000e0 0.000000000000000e0 0.000000000000000e0
0.000000000000000e0 0.000000000000000e0 0.000000000000000e0 0.000000000000000e0
0.000000000000000e0 0.000000000000000e0 0.000000000000000e0 0.000000000000000e0
0.000000000000000e0 0.000000000000000e0 0.000000000000000e0 0.000000000000000e0
0.000000000000000e0 0.000000000000000e0 0.000000000000000e0 0.000000000000000e0
0.000000000000000e0 0.000000000000000e0 0.000000000000000e0 0.000000000000000e0
0.000000000000000e0 0.000000000000000e0 0.000000000000000e0 0.000000000000000e0
0.000000000000000e0 0.000000000000000e0 0.000000000000000e0 0.000000000000000e0
0.000000000000000e0 0.000000000000000e0 0.000000000000000e0 0.000000000000000e0
0.000000000000000e0 0.000000000000000e0 0.000000000000000e0 0.000000000000000e0
0.000000000000000e0 0.000000000000000e0 0.000000000000000e0 0.000000000000000e0
0.000000000000000e0 0.000000000000000e0 0.000000000000000e0 0.000000000000000e0
0.000000000000000e0 0.000000000000000e0 0.000000000000000e0 0.000000000000000e0
0.000000000000000e0 0.000000000000000e0 0.000000000000000e0 0.000000000000000e0
0.000000000000000e0 0.000000000000000e0 0.000000000000000e0 0.000000000000000e0
0.000000000000000e0 0.000000000000000e0 0.000000000000000e0 0.000000000000000e0
0.000000000000000e0 0.000000000000000e0 0.000000000000000e0 0.000000000000000e0
0.000000000000000e0 0.000000000000000e0 0.000000000000000e0 0.000000000000000e0
0.000000000000000e0 0.000000000000000e0 0.000000000000000e0 0.000000000000000e0
0.000000000000000e0 0.000000000000000e0 0.000000000000000e0 0.000000000000000e0
0.000000000000000e0 0.000000000000000e0 0.000000000000000e0 0.000000000000000e0
0.000000000000000e0 0.000000000000000e0 0.000000000000000e0 0.000000000000000e0
0.000000000000000e0 0.000000000000000e0 0.000000000000000e0 0.000000000000000e0
0.000000000000000e0 0.000000000000000e0 0.000000000000000e0 0.000000000000000e0
0.000000000000000e0 0.000000000000000e0 0.000000000000000e0 0.000000000000000e0
0.000000000000000e0 0.000000000000000e0 0.000000000000000e0 0.000000000000000e0
0.000000000000000e0 0.000000000000000e0 0.000000000000000e0 0.000000000000000e0
0.000000000000000e0 0.000000000000000e0 0.000000000000000e0 0.000000000000000e0
0.000000000000000e0 0.000000000000000e0 0.000000000000000e0 0.000000000000000e0
0.000000000000000e0 0.000000000000000e0 0.000000000000000e0 0.000000000000000e0
0.000000000000000e0 0.000000000000000e0 0.000000000000000e0 0.000000000000000e0
0.000000000000000e0 0.000000000000000e0 0.000000000000000e0 0.000000000000000e0
0.000000000000000e0 0.000000000000000e0 0.000000000000000e0 0.000000000000000e0
0.000000000000000e0 0.000000000000000e0 0.000000000000000e0 0.000000000000000e0
0.000000000000000e0 0.000000000000000e0 0.000000000000000e0 0.000000000000000e0
0.000000000000000e0 0.000000000000000e0 0.000000000000000e0 0.000000000000000e0
0.000000000000000e0 0.000000000000000e0 0.000000000000000e0 0.000000000000000e0
0.000000000000000e0 0.000000000000000e0 0.000000000000000e0 0.000000000000000e0
0.000000000000000e0 0.000000000000000e0 0.000000000000000e0 0.000000000000000e0
0.000000000000000e0 0.000000000000000e0 0.000000000000000e0 0.000000000000000e0
0.000000000000000e0 0.000000000000000e0 0.000000000000000e0 0.000000000000000e0
0.000000000000000e0 0.000000000000000e0 0.000000000000000e0 0.000000000000000e0
0.000000000000000e0 0.000000000000000e0 0.000000000000000e0 0.000000000000000e0
0.000000000000000e0 0.000000000000000e0 0.000000000000000e0 0.000000000000000e0
0.000000000000000e0 0.000000000000000e0 0.000000000000000e0 0.000000000000000e0
0.000000000000000e0 0.000000000000000e0 0.000000000000000e0 0.000000000000000e0
0.000000000000000e0 0.000000000000000e0 0.000000000000000e0 0.000000000000000e0
0.000000000000000e0 0.000000000000000e0 0.000000000000000e0 0.000000000000000e0
0.000000000000000e0 0.000000000000000e0 0.000000000000000e0 0.000000000000000e0
0.000000000000000e0 0.000000000000000e0 0.000000000000000e0 0.000000000000000e0
0.000000000000000e0 0.000000000000000e0 0.000000000000000e0 0.000000000000000e0
0.000000000000000e0 0.000000000000000e0 0.000000000000000e0 0.000000000000000e0
0.000000000000000e0 0.000000000000000e0 0.000000000000000e0 0.000000000000000e0
0.000000000000000e0 0.000000000000000e0 0.000000000000000e0 0.000000000000000e0
0.000000000000000e0 0.000000000000000e0 0.000000000000000e0 0.000000000000000e0
0.000000000000000e0 0.000000000000000e0 0.000000000000000e0 0.000000000000000e0
0.000000000000000e0 0.000000000000000e0 0.000000000000000e0 0.000000000000000e0
0.000000000000000e0 0.000000000000000e0 0.000000000000000e0 0.000000000000000e0
0.000000000000000e0 0.000000000000000e0 0.000000000000000e0 0.000000000000000e0
0.000000000000000e0 0.000000000000000e0 0.000000000000000e0 0.000000000000000e0
0.000000000000000e0 0.000000000000000e0 0.000000000000000e0 0.000000000000000e0
0.000000000000000e0 0.000000000000000e0 0.000000000000000e0 0.000000000000000e0
0.000000000000000e0 0.000000000000000e0 0.000000000000000e0 0.000000000000000e0
0.000000000000000e0 0.000000000000000e0 0.000000000000000e0 0.000000000000000e0
0.000000000000000e0 0.000000000000000e0 0.000000000000000e0 0.000000000000000e0
0.000000000000000e0 0.000000000000000e0 0.000000000000000e0 0.000000000000000e0
0.000000000000000e0 0.000000000000000e0 0.000000000000000e0 0.000000000000000e0
0.000000000000000e0 0.000000000000000e0 0.000000000000000e0 0.000000000000000e0
0.000000000000000e0 0.000000000000000e0 0.000000000000000e0 0.000000000000000e0
0.000000000000000e0 0.000000000000000e0 0.000000000000000e0 0.000000000000000e0
0.000000000000000e0 0.000000000000000e0 0.000000000000000e0
</PP_QIJ.4.6>
<PP_QIJ.5.5 first_index="5" second_index="5" composite_index="15">
0.000000000000000e0 -4.620352309529999e-14 -1.879331893389999e-13 -4.300059920100000e-13
-7.774287360740001e-13 -1.235404917890000e-12 -1.809341845590000e-12 -2.504858008430000e-12
-3.327790703670001e-12 -4.284203929860000e-12 -5.380396555650000e-12 -6.622910773679999e-12
-8.018540849239999e-12 -9.574342173910001e-12 -1.129764063470000e-11 -1.319604230920000e-11
-1.527744349890000e-11 -1.755004111039999e-11 -2.002234339879999e-11 -2.270318108410000e-11
-2.560171885360000e-11 -2.872746726430000e-11 -3.209029505790001e-11 -3.570044190389998e-11
-3.956853158410000e-11 -4.370558563440000e-11 -4.812303746020000e-11 -5.283274693940001e-11
-5.784701553269999e-11 -6.317860191580003e-11 -6.884073815390000e-11 -7.484714643449999e-11
-8.121205637959999e-11 -8.795022295679999e-11 -9.507694500850000e-11 -1.026080844220000e-10
-1.105600859610000e-10 -1.189499977840000e-10 -1.277954926670000e-10 -1.371148899610000e-10
-1.469271783110000e-10 -1.572520391480000e-10 -1.681098710000000e-10 -1.795218146400000e-10
-1.915097790930000e-10 -2.040964685520001e-10 -2.173054102049999e-10 -2.311609830360000e-10
-2.456884476029999e-10 -2.609139768510000e-10 -2.768646879810000e-10 -2.935686754110000e-10
-3.110550448810000e-10 -3.293539487200000e-10 -3.484966223280001e-10 -3.685154219130000e-10
-3.894438635280001e-10 -4.113166634349999e-10 -4.341697798730001e-10 -4.580404562469998e-10
-4.829672658039999e-10 -5.089901578370000e-10 -5.361505054869999e-10 -5.644911551670000e-10
-5.940564776940000e-10 -6.248924211680001e-10 -6.570465656669999e-10 -6.905681798130001e-10
-7.255082792770001e-10 -7.619196872920000e-10 -7.998570972340000e-10 -8.393771373479998e-10
-8.805384376899999e-10 -9.234016993630000e-10 -9.680297661189998e-10 -1.014487698410000e-9
-1.062842849990000e-9 -1.113164947110000e-9 -1.165526170420000e-9 -1.220001239720000e-9
-1.276667501580000e-9 -1.335605019920000e-9 -1.396896669720000e-9 -1.460628233960000e-9
-1.526888503840000e-9 -1.595769382409999e-9 -1.667365991750000e-9 -1.741776783890000e-9
-1.819103655340000e-9 -1.899452065740000e-9 -1.982931160400000e-9 -2.069653897130000e-9
-2.159737177310000e-9 -2.253301981510000e-9 -2.350473509700000e-9 -2.451381326250000e-9
-2.556159509890001e-9 -2.664946808740000e-9 -2.777886800720000e-9 -2.895128059330000e-9
-3.016824325140000e-9 -3.143134683120000e-9 -3.274223746020000e-9 -3.410261843979999e-9
-3.551425220640001e-9 -3.697896235870000e-9 -3.849863575490001e-9 -4.007522468110000e-9
-4.171074909300001e-9 -4.340729893459999e-9 -4.516703653599999e-9 -4.699219909250000e-9
-4.888510122790001e-9 -5.084813764600000e-9 -5.288378587150000e-9 -5.499460908450001e-9
-5.718325905200000e-9 -5.945247915809999e-9 -6.180510753870000e-9 -6.424408032180001e-9
-6.677243497869999e-9 -6.939331378880000e-9 -7.210996742290002e-9 -7.492575864760003e-9
-7.784416615660001e-9 -8.086878853190003e-9 -8.400334833919999e-9 -8.725169636410001e-9
-9.061781599040000e-9 -9.410582772930001e-9 -9.771999390089999e-9 -1.014647234760000e-8
-1.053445770820000e-8 -1.093642721780000e-8 -1.135286884100000e-8 -1.178428731420000e-8
-1.223120471780000e-8 -1.269416106820000e-8 -1.317371492900000e-8 -1.367044404420000e-8
-1.418494599170000e-8 -1.471783885990000e-8 -1.526976194670000e-8 -1.584137648260000e-8
-1.643336637830000e-8 -1.704643899730000e-8 -1.768132595560000e-8 -1.833878394739999e-8
-1.901959560000000e-8 -1.972457035670000e-8 -2.045454539030000e-8 -2.121038654760000e-8
-2.199298932570000e-8 -2.280327988120000e-8 -2.364221607470000e-8 -2.451078854920000e-8
-2.541002184620000e-8 -2.634097555970000e-8 -2.730474552850000e-8 -2.830246506960000e-8
-2.933530625340000e-8 -3.040448122170000e-8 -3.151124355109999e-8 -3.265688966169999e-8
-3.384276027450000e-8 -3.507024191770000e-8 -3.634076848360000e-8 -3.765582283960000e-8
-3.901693849219998e-8 -4.042570130850001e-8 -4.188375129559999e-8 -4.339278444030001e-8
-4.495455461100001e-8 -4.657087552419999e-8 -4.824362277760000e-8 -4.997473595179999e-8
-5.176622078309999e-8 -5.362015141050001e-8 -5.553867269760000e-8 -5.752400263420000e-8
-5.957843481859999e-8 -6.170434102330001e-8 -6.390417384919999e-8 -6.618046946710001e-8
-6.853585045430001e-8 -7.097302872550002e-8 -7.349480856320001e-8 -7.610408975070002e-8
-7.880387081070000e-8 -8.159725235340002e-8 -8.448744053790001e-8 -8.747775064970000e-8
-9.057161080000000e-8 -9.377256574910000e-8 -9.708428085900000e-8 -1.005105461800000e-7
-1.040552806730000e-7 -1.077225365780000e-7 -1.115165039260000e-7 -1.154415152040000e-7
-1.195020501810000e-7 -1.237027408880000e-7 -1.280483767770000e-7 -1.325439100430000e-7
-1.371944611320000e-7 -1.420053244310000e-7 -1.469819741530000e-7 -1.521300704150000e-7
-1.574554655250000e-7 -1.629642104730000e-7 -1.686625616520000e-7 -1.745569877950000e-7
-1.806541771440000e-7 -1.869610448690000e-7 -1.934847407269999e-7 -2.002326569810001e-7
-2.072124365830000e-7 -2.144319816359999e-7 -2.218994621310000e-7 -2.296233249870000e-7
-2.376123033790000e-7 -2.458754263950000e-7 -2.544220290010000e-7 -2.632617623480000e-7
-2.724046044180000e-7 -2.818608710280000e-7 -2.916412272000000e-7 -3.017566989090000e-7
-3.122186852240000e-7 -3.230389708490000e-7 -3.342297390900000e-7 -3.458035852399999e-7
-3.577735304200000e-7 -3.701530358710000e-7 -3.829560177280000e-7 -3.961968622750000e-7
-4.098904417099999e-7 -4.240521304300000e-7 -4.386978218569999e-7 -4.538439458100000e-7
-4.695074864650000e-7 -4.857060008910000e-7 -5.024576382090000e-7 -5.197811593700001e-7
-5.376959575910000e-7 -5.562220794590001e-7 -5.753802467210001e-7 -5.951918787959998e-7
-6.156791160130001e-7 -6.368648436190000e-7 -6.587727165570001e-7 -6.814271850560000e-7
-7.048535210570000e-7 -7.290778454890000e-7 -7.541271564300001e-7 -7.800293581840001e-7
-8.068132912879999e-7 -8.345087634920000e-7 -8.631465817370000e-7 -8.927585851489999e-7
-9.233776791029999e-7 -9.550378703700000e-7 -9.877743033780002e-7 -1.021623297640000e-6
-1.056622386370000e-6 -1.092810356300000e-6 -1.130227288770000e-6 -1.168914602140000e-6
-1.208915095480000e-6 -1.250272993670000e-6 -1.293033993870000e-6 -1.337245313510000e-6
-1.382955739670000e-6 -1.430215680050000e-6 -1.479077215530000e-6 -1.529594154250000e-6
-1.581822087480000e-6 -1.635818447030000e-6 -1.691642564580000e-6 -1.749355732600000e-6
-1.809021267330000e-6 -1.870704573420000e-6 -1.934473210640000e-6 -2.000396962510000e-6
-2.068547906980000e-6 -2.139000489120000e-6 -2.211831595980000e-6 -2.287120633590000e-6
-2.364949606170001e-6 -2.445403197610000e-6 -2.528568855220001e-6 -2.614536875860000e-6
-2.703400494469999e-6 -2.795255975030000e-6 -2.890202703970000e-6 -2.988343286180000e-6
-3.089783643540000e-6 -3.194633116070000e-6 -3.303004565730001e-6 -3.415014482899999e-6
-3.530783095590000e-6 -3.650434481370000e-6 -3.774096682110000e-6 -3.901901821499999e-6
-4.033986225390001e-6 -4.170490544960000e-6 -4.311559882720000e-6 -4.457343921420000e-6
-4.607997055720000e-6 -4.763678526790000e-6 -4.924552559640000e-6 -5.090788503320000e-6
-5.262560973840000e-6 -5.440049999899999e-6 -5.623441171110000e-6 -5.812925789060000e-6
-6.008701020669999e-6 -6.210970054150000e-6 -6.419942257210000e-6 -6.635833337449998e-6
-6.858865504890000e-6 -7.089267636270002e-6 -7.327275441180001e-6 -7.573131629610000e-6
-7.827086080800000e-6 -8.089396013100000e-6 -8.360326154539999e-6 -8.640148913770002e-6
-8.929144551080002e-6 -9.227601349050001e-6 -9.535815782410001e-6 -9.854092686579998e-6
-1.018274542450000e-5 -1.052209605100000e-5 -1.087247547440000e-5 -1.123422361380000e-5
-1.160768955280000e-5 -1.199323168720000e-5 -1.239121786700000e-5 -1.280202553090000e-5
-1.322604183300000e-5 -1.366366375960000e-5 -1.411529823590000e-5 -1.458136222040000e-5
-1.506228278600000e-5 -1.555849718600000e-5 -1.607045290340000e-5 -1.659860768110000e-5
-1.714342953220000e-5 -1.770539672700000e-5 -1.828499775450000e-5 -1.888273125670000e-5
-1.949910593200000e-5 -2.013464040530000e-5 -2.078986306090000e-5 -2.146531183610001e-5
-2.216153397050000e-5 -2.287908570660000e-5 -2.361853194020000e-5 -2.438044581160001e-5
-2.516540823680000e-5 -2.597400737070000e-5 -2.680683799740000e-5 -2.766450084140000e-5
-2.854760179280000e-5 -2.945675103990000e-5 -3.039256210060000e-5 -3.135565074480000e-5
-3.234663379980001e-5 -3.336612782690000e-5 -3.441474766180000e-5 -3.549310480550000e-5
-3.660180565520000e-5 -3.774144956230000e-5 -3.891262670410001e-5 -4.011591575390001e-5
-4.135188133550000e-5 -4.262107124390000e-5 -4.392401341520000e-5 -4.526121262690000e-5
-4.663314690680000e-5 -4.804026363010000e-5 -4.948297528059999e-5 -5.096165485100000e-5
-5.247663085440001e-5 -5.402818192090000e-5 -5.561653094499999e-5 -5.724183875430001e-5
-5.890419726180001e-5 -6.060362206530000e-5 -6.234004445390000e-5 -6.411330277740000e-5
-6.592313313400000e-5 -6.776915932640000e-5 -6.965088203330000e-5 -7.156766714230000e-5
-7.351873318060001e-5 -7.550313778380001e-5 -7.751976313049999e-5 -7.956730027320001e-5
-8.164423228410001e-5 -8.374881613560001e-5 -8.587906322540000e-5 -8.803271845099999e-5
-9.020723773350001e-5 -9.239976388270000e-5 -9.460710068809998e-5 -9.682568511340000e-5
-9.905155746420000e-5 -1.012803293890000e-4 -1.035071495650000e-4 -1.057266669110000e-4
-1.079329911600000e-4 -1.101196506070000e-4 -1.122795468490000e-4 -1.144049063050000e-4
-1.164872283050000e-4 -1.185172295160000e-4 -1.204847844620000e-4 -1.223788618660000e-4
-1.241874565560000e-4 -1.258975166240000e-4 -1.274948655220000e-4 -1.289641187830000e-4
-1.302885949890000e-4 -1.314502206210000e-4 -1.324294283930000e-4 -1.332050486420000e-4
-1.337541933250000e-4 -1.340521321520000e-4 -1.340721603320000e-4 -1.337854574220000e-4
-1.331609366900000e-4 -1.321650843910000e-4 -1.307617883340000e-4 -1.289121550510000e-4
-1.265743148600000e-4 -1.237032140650000e-4 -1.202503935000000e-4 -1.161637525710000e-4
-1.113872979070000e-4 -1.058608756760000e-4 -9.951988659550000e-5 -9.229498256110000e-5
-8.411174382559999e-5 -7.489033555070001e-5 -6.454514252190000e-5 -5.298438074450001e-5
-4.010968457480001e-5 -2.581566797650000e-5 -9.989458420029997e-6 7.489798125790001e-6
2.675146273350000e-5 4.793396128770000e-5 7.118537625960000e-5 9.666407433860000e-5
1.245393718480000e-4 1.549922399580000e-4 1.882160517720000e-4 2.244173734730000e-4
2.638168017540000e-4 3.066498498650000e-4 3.531678846710000e-4 4.036391171990000e-4
4.583496491990000e-4 5.176045783330001e-4 5.817291646550000e-4 6.510700610910001e-4
7.259966106939999e-4 8.069022134419999e-4 8.942057654379999e-4 9.883531732950001e-4
1.089818946570000e-3 1.199107871040000e-3 1.316756765520000e-3 1.443336325050000e-3
1.579453052920000e-3 1.725751284060000e-3 1.882915302160000e-3 2.051671552600000e-3
2.232790953170000e-3 2.427091304080000e-3 2.635439798700000e-3 2.858755635810000e-3
3.098012733950000e-3 3.354242547640001e-3 3.628536984960000e-3 3.922051425020001e-3
4.236007833290000e-3 4.571697971700001e-3 4.930486699539999e-3 5.313815360110000e-3
5.723205246580000e-3 6.160261139439999e-3 6.626674906250001e-3 7.124229152450000e-3
7.654800910490001e-3 8.220365352029999e-3 8.822999505960000e-3 9.464885962140000e-3
1.014831653810000e-2 1.087569588300000e-2 1.164954498920000e-2 1.247250457900000e-2
1.334733832900000e-2 1.427693589190000e-2 1.526431566790000e-2 1.631262727640000e-2
1.742515366990000e-2 1.860531282850000e-2 1.985665896510000e-2 2.118288316530000e-2
2.258781337990000e-2 2.407541367690000e-2 2.564978265490000e-2 2.731515090850000e-2
2.907587742860000e-2 3.093644480880000e-2 3.290145312140000e-2 3.497561231260000e-2
3.716373295790000e-2 3.947071520630000e-2 4.190153573049999e-2 4.446123248850000e-2
4.715488709140000e-2 4.998760456029999e-2 5.296449024580000e-2 5.609062367420000e-2
5.937102907570000e-2 6.281064234840001e-2 6.641427420220001e-2 7.018656923680000e-2
7.413196070360000e-2 7.825462072150000e-2 8.255840572750001e-2 8.704679697440000e-2
9.172283592179999e-2 9.658905441660000e-2 1.016473996210000e-1 1.068991537270000e-1
1.123448485920000e-1 1.179841755460000e-1 1.238158907750000e-1 1.298377168240000e-1
1.360462409980000e-1 1.424368115980000e-1 1.490034332290000e-1 1.557386626400000e-1
1.626335068340000e-1 1.696773254830000e-1 1.768577399210000e-1 1.841605512310000e-1
1.915696700950000e-1 1.990670611370000e-1 2.066327043900000e-1 2.142445762020000e-1
2.218786513080000e-1 2.295089268470000e-1 2.371074677130000e-1 2.446444707470000e-1
2.520883429110000e-1 2.594057856540000e-1 2.665618745200000e-1 2.735201198830000e-1
2.802424922490000e-1 2.866893951410000e-1 2.928195719660000e-1 2.985899438350000e-1
3.039553977120000e-1 3.088685860610000e-1 3.132798712470000e-1 3.171376666070000e-1
3.203896149750000e-1 3.229850577580000e-1 3.248762179220000e-1 3.260172382210000e-1
3.263646942610000e-1 3.258783527440000e-1 3.245220010300000e-1 3.222643642130000e-1
3.190800868820000e-1 3.149508020760000e-1 3.098662494410000e-1 3.038254501350000e-1
2.968378631960000e-1 2.889244854910000e-1 2.801187475610000e-1 2.704670922500000e-1
2.600290127390000e-1 2.488764119140000e-1 2.370921157110000e-1 2.247675914710000e-1
2.120000132530000e-1 1.988891005780000e-1 1.855341750220000e-1 1.720319527190000e-1
1.584753138290000e-1 1.449531238860000e-1 1.315508415730000e-1 1.183516214350000e-1
1.054375476370000e-1 9.289083870120001e-2 8.079489539280001e-2 6.923519521950000e-2
5.829992179740000e-2 4.808016215120000e-2 3.866927716430000e-2 3.016092238560000e-2
2.264501824790000e-2 1.620096935640000e-2 1.088758265880000e-2 6.729648965509999e-3
3.702149581990000e-3 1.714717588760000e-3 6.015122667240000e-4 1.250400893140000e-4
6.587558752740000e-6 0.000000000000000e0 0.000000000000000e0 0.000000000000000e0
0.000000000000000e0 0.000000000000000e0 0.000000000000000e0 0.000000000000000e0
0.000000000000000e0 0.000000000000000e0 0.000000000000000e0 0.000000000000000e0
0.000000000000000e0 0.000000000000000e0 0.000000000000000e0 0.000000000000000e0
0.000000000000000e0 0.000000000000000e0 0.000000000000000e0 0.000000000000000e0
0.000000000000000e0 0.000000000000000e0 0.000000000000000e0 0.000000000000000e0
0.000000000000000e0 0.000000000000000e0 0.000000000000000e0 0.000000000000000e0
0.000000000000000e0 0.000000000000000e0 0.000000000000000e0 0.000000000000000e0
0.000000000000000e0 0.000000000000000e0 0.000000000000000e0 0.000000000000000e0
0.000000000000000e0 0.000000000000000e0 0.000000000000000e0 0.000000000000000e0
0.000000000000000e0 0.000000000000000e0 0.000000000000000e0 0.000000000000000e0
0.000000000000000e0 0.000000000000000e0 0.000000000000000e0 0.000000000000000e0
0.000000000000000e0 0.000000000000000e0 0.000000000000000e0 0.000000000000000e0
0.000000000000000e0 0.000000000000000e0 0.000000000000000e0 0.000000000000000e0
0.000000000000000e0 0.000000000000000e0 0.000000000000000e0 0.000000000000000e0
0.000000000000000e0 0.000000000000000e0 0.000000000000000e0 0.000000000000000e0
0.000000000000000e0 0.000000000000000e0 0.000000000000000e0 0.000000000000000e0
0.000000000000000e0 0.000000000000000e0 0.000000000000000e0 0.000000000000000e0
0.000000000000000e0 0.000000000000000e0 0.000000000000000e0 0.000000000000000e0
0.000000000000000e0 0.000000000000000e0 0.000000000000000e0 0.000000000000000e0
0.000000000000000e0 0.000000000000000e0 0.000000000000000e0 0.000000000000000e0
0.000000000000000e0 0.000000000000000e0 0.000000000000000e0 0.000000000000000e0
0.000000000000000e0 0.000000000000000e0 0.000000000000000e0 0.000000000000000e0
0.000000000000000e0 0.000000000000000e0 0.000000000000000e0 0.000000000000000e0
0.000000000000000e0 0.000000000000000e0 0.000000000000000e0 0.000000000000000e0
0.000000000000000e0 0.000000000000000e0 0.000000000000000e0 0.000000000000000e0
0.000000000000000e0 0.000000000000000e0 0.000000000000000e0 0.000000000000000e0
0.000000000000000e0 0.000000000000000e0 0.000000000000000e0 0.000000000000000e0
0.000000000000000e0 0.000000000000000e0 0.000000000000000e0 0.000000000000000e0
0.000000000000000e0 0.000000000000000e0 0.000000000000000e0 0.000000000000000e0
0.000000000000000e0 0.000000000000000e0 0.000000000000000e0 0.000000000000000e0
0.000000000000000e0 0.000000000000000e0 0.000000000000000e0 0.000000000000000e0
0.000000000000000e0 0.000000000000000e0 0.000000000000000e0 0.000000000000000e0
0.000000000000000e0 0.000000000000000e0 0.000000000000000e0 0.000000000000000e0
0.000000000000000e0 0.000000000000000e0 0.000000000000000e0 0.000000000000000e0
0.000000000000000e0 0.000000000000000e0 0.000000000000000e0 0.000000000000000e0
0.000000000000000e0 0.000000000000000e0 0.000000000000000e0 0.000000000000000e0
0.000000000000000e0 0.000000000000000e0 0.000000000000000e0 0.000000000000000e0
0.000000000000000e0 0.000000000000000e0 0.000000000000000e0 0.000000000000000e0
0.000000000000000e0 0.000000000000000e0 0.000000000000000e0 0.000000000000000e0
0.000000000000000e0 0.000000000000000e0 0.000000000000000e0 0.000000000000000e0
0.000000000000000e0 0.000000000000000e0 0.000000000000000e0 0.000000000000000e0
0.000000000000000e0 0.000000000000000e0 0.000000000000000e0 0.000000000000000e0
0.000000000000000e0 0.000000000000000e0 0.000000000000000e0 0.000000000000000e0
0.000000000000000e0 0.000000000000000e0 0.000000000000000e0 0.000000000000000e0
0.000000000000000e0 0.000000000000000e0 0.000000000000000e0 0.000000000000000e0
0.000000000000000e0 0.000000000000000e0 0.000000000000000e0 0.000000000000000e0
0.000000000000000e0 0.000000000000000e0 0.000000000000000e0 0.000000000000000e0
0.000000000000000e0 0.000000000000000e0 0.000000000000000e0 0.000000000000000e0
0.000000000000000e0 0.000000000000000e0 0.000000000000000e0 0.000000000000000e0
0.000000000000000e0 0.000000000000000e0 0.000000000000000e0 0.000000000000000e0
0.000000000000000e0 0.000000000000000e0 0.000000000000000e0 0.000000000000000e0
0.000000000000000e0 0.000000000000000e0 0.000000000000000e0 0.000000000000000e0
0.000000000000000e0 0.000000000000000e0 0.000000000000000e0 0.000000000000000e0
0.000000000000000e0 0.000000000000000e0 0.000000000000000e0 0.000000000000000e0
0.000000000000000e0 0.000000000000000e0 0.000000000000000e0 0.000000000000000e0
0.000000000000000e0 0.000000000000000e0 0.000000000000000e0 0.000000000000000e0
0.000000000000000e0 0.000000000000000e0 0.000000000000000e0 0.000000000000000e0
0.000000000000000e0 0.000000000000000e0 0.000000000000000e0 0.000000000000000e0
0.000000000000000e0 0.000000000000000e0 0.000000000000000e0 0.000000000000000e0
0.000000000000000e0 0.000000000000000e0 0.000000000000000e0 0.000000000000000e0
0.000000000000000e0 0.000000000000000e0 0.000000000000000e0 0.000000000000000e0
0.000000000000000e0 0.000000000000000e0 0.000000000000000e0 0.000000000000000e0
0.000000000000000e0 0.000000000000000e0 0.000000000000000e0 0.000000000000000e0
0.000000000000000e0 0.000000000000000e0 0.000000000000000e0 0.000000000000000e0
0.000000000000000e0 0.000000000000000e0 0.000000000000000e0 0.000000000000000e0
0.000000000000000e0 0.000000000000000e0 0.000000000000000e0 0.000000000000000e0
0.000000000000000e0 0.000000000000000e0 0.000000000000000e0 0.000000000000000e0
0.000000000000000e0 0.000000000000000e0 0.000000000000000e0 0.000000000000000e0
0.000000000000000e0 0.000000000000000e0 0.000000000000000e0 0.000000000000000e0
0.000000000000000e0 0.000000000000000e0 0.000000000000000e0
</PP_QIJ.5.5>
<PP_QIJ.5.6 first_index="5" second_index="6" composite_index="20">
0.000000000000000e0 7.134664058549999e-14 2.902030151580000e-13 6.640074371350000e-13
1.200491323660000e-12 1.907689819100000e-12 2.793952790190000e-12 3.867956205689999e-12
5.138713913620001e-12 6.615589829919999e-12 8.308310552609999e-12 1.022697841610000e-11
1.238208500060000e-11 1.478452511270000e-11 1.744561125320000e-11 2.037708858769999e-11
2.359115043990000e-11 2.710045432279999e-11 3.091813852750000e-11 3.505783928940001e-11
3.953370854990002e-11 4.436043233560000e-11 4.955324977540001e-11 5.512797277760000e-11
6.110100638930003e-11 6.748936986220000e-11 7.431071844829999e-11 8.158336595070001e-11
8.932630805570000e-11 9.755924647250003e-11 1.063026139090000e-10 1.155775999090000e-10
1.254061775890000e-10 1.358111312910000e-10 1.468160852000000e-10 1.584455329430000e-10
1.707248682120000e-10 1.836804164490000e-10 1.973394676189999e-10 2.117303101159999e-10
2.268822658380000e-10 2.428257264740000e-10 2.595921910400000e-10 2.772143047070000e-10
2.957258989680000e-10 3.151620331940000e-10 3.355590376130000e-10 3.569545577700000e-10
3.793876005230000e-10 4.028985816170000e-10 4.275293748940000e-10 4.533233631970001e-10
4.803254910240000e-10 5.085823189960001e-10 5.381420801859999e-10 5.690547383940001e-10
6.013720484210000e-10 6.351476184090000e-10 6.704369743270001e-10 7.072976266669999e-10
7.457891394279999e-10 7.859732014730002e-10 8.279137003260001e-10 8.716767985059999e-10
9.173310124769998e-10 9.649472943019999e-10 1.014599116100000e-9 1.066362557400000e-9
1.120316395470000e-9 1.176542198760000e-9 1.235124423570001e-9 1.296150513940000e-9
1.359711005070000e-9 1.425899630190000e-9 1.494813431170000e-9 1.566552872820000e-9
1.641221961220000e-9 1.718928365940000e-9 1.799783546630000e-9 1.883902883770000e-9
1.971405813990000e-9 2.062415970000000e-9 2.157061325249999e-9 2.255474343610000e-9
2.357792134149999e-9 2.464156611130000e-9 2.574714659549999e-9 2.689618306349999e-9
2.809024897350000e-9 2.933097280410001e-9 3.062003994640000e-9 3.195919466240000e-9
3.335024210970000e-9 3.479505043450001e-9 3.629555293750000e-9 3.785375031229999e-9
3.947171296110001e-9 4.115158338930000e-9 4.289557868119999e-9 4.470599306059999e-9
4.658520053869999e-9 4.853565765230001e-9 5.055990629530001e-9 5.266057664630001e-9
5.484039019710000e-9 5.710216288309999e-9 5.944880832120001e-9 6.188334115810000e-9
6.440888053210001e-9 6.702865365310000e-9 6.974599950499999e-9 7.256437267340000e-9
7.548734730429998e-9 7.851862119740003e-9 8.166202003860001e-9 8.492150177699999e-9
8.830116115050000e-9 9.180523436560000e-9 9.543810393689999e-9 9.920430369029997e-9
1.031085239380000e-8 1.071556168270000e-8 1.113506018740000e-8 1.156986716830000e-8
1.202051978620000e-8 1.248757371390000e-8 1.297160376860000e-8 1.347320456570000e-8
1.399299119540000e-8 1.453159992120000e-8 1.508968890340000e-8 1.566793894640000e-8
1.626705427160000e-8 1.688776331650000e-8 1.753081956120000e-8 1.819700238280000e-8
1.888711793900000e-8 1.960200008110000e-8 2.034251129920000e-8 2.110954369810000e-8
2.190402000780000e-8 2.272689462700000e-8 2.357915470290000e-8 2.446182124720000e-8
2.537595029060000e-8 2.632263407559999e-8 2.730300229060000e-8 2.831822334540000e-8
2.936950569030000e-8 3.045809917970001e-8 3.158529648229999e-8 3.275243453860000e-8
3.396089606890000e-8 3.521211113090000e-8 3.650755873160000e-8 3.784876849309999e-8
3.923732237530000e-8 4.067485645620000e-8 4.216306277390002e-8 4.370369122990000e-8
4.529855155720000e-8 4.694951535570000e-8 4.865851819580001e-8 5.042756179360001e-8
5.225871626000000e-8 5.415412242570001e-8 5.611599424509999e-8 5.814662128160000e-8
6.024837127720000e-8 6.242369280860000e-8 6.467511803410000e-8 6.700526553260000e-8
6.941684323950001e-8 7.191265148110000e-8 7.449558611250001e-8 7.716864176100001e-8
7.993491517990002e-8 8.279760871510002e-8 8.576003388900000e-8 8.882561510610001e-8
9.199789348360000e-8 9.528053081079999e-8 9.867731364350000e-8 1.021921575360000e-7
1.058291114160000e-7 1.095923621070000e-7 1.134862390060000e-7 1.175152189130000e-7
1.216839310320000e-7 1.259971621340000e-7 1.304598618950000e-7 1.350771484180000e-7
1.398543139370000e-7 1.447968307180000e-7 1.499103571500000e-7 1.552007440530000e-7
1.606740411910000e-7 1.663365040030000e-7 1.721946005670000e-7 1.782550187940000e-7
1.845246738660000e-7 1.910107159180000e-7 1.977205379930000e-7 2.046617842440000e-7
2.118423584340000e-7 2.192704326990000e-7 2.269544566240000e-7 2.349031666120001e-7
2.431255955760001e-7 2.516310829430001e-7 2.604292850110000e-7 2.695301856390000e-7
2.789441072980000e-7 2.886817225000000e-7 2.987540655970000e-7 3.091725449839999e-7
3.199489557090000e-7 3.310954924980000e-7 3.426247632210000e-7 3.545498028060000e-7
3.668840876170000e-7 3.796415503100000e-7 3.928365951860001e-7 4.064841140520000e-7
4.205995026159998e-7 4.351986774190000e-7 4.502980933330000e-7 4.659147616460000e-7
4.820662687350000e-7 4.987707953679998e-7 5.160471366380001e-7 5.339147225660001e-7
5.523936393740000e-7 5.715046514669999e-7 5.912692241439999e-7 6.117095470460000e-7
6.328485583910000e-7 6.547099699910000e-7 6.773182931059997e-7 7.006988651369999e-7
7.248778771950002e-7 7.498824025759999e-7 7.757404261680000e-7 8.024808748140000e-7
8.301336486690001e-7 8.587296535769999e-7 8.883008345020002e-7 9.188802100429999e-7
9.505019080709999e-7 9.832012025150000e-7 1.017014551340000e-6 1.051979635760000e-6
1.088135400690000e-6 1.125522096500000e-6 1.164181322170000e-6 1.204156069700000e-6
1.245490770100000e-6 1.288231340680000e-6 1.332425233980000e-6 1.378121488180000e-6
1.425370779100000e-6 1.474225473880000e-6 1.524739686350000e-6 1.576969334080000e-6
1.630972197270000e-6 1.686807979470000e-6 1.744538370170000e-6 1.804227109340000e-6
1.865940053940000e-6 1.929745246550000e-6 1.995712985990000e-6 2.063915900210000e-6
2.134429021310000e-6 2.207329862850000e-6 2.282698499580000e-6 2.360617649400000e-6
2.441172757890000e-6 2.524452085320000e-6 2.610546796210000e-6 2.699551051539999e-6
2.791562103620000e-6 2.886680393750000e-6 2.985009652710000e-6 3.086657004020000e-6
3.191733070280001e-6 3.300352082400000e-6 3.412631991930000e-6 3.528694586479999e-6
3.648665608330000e-6 3.772674876300000e-6 3.900856410830000e-6 4.033348562420000e-6
4.170294143530000e-6 4.311840563800001e-6 4.458139968839999e-6 4.609349382480000e-6
4.765630852649999e-6 4.927151600750000e-6 5.094084174750001e-6 5.266606605870000e-6
5.444902568929999e-6 5.629161546390000e-6 5.819578996070001e-6 6.016356522480001e-6
6.219702051910001e-6 6.429830011070001e-6 6.646961509309999e-6 6.871324524480000e-6
7.103154092219999e-6 7.342692498609999e-6 7.590189476280001e-6 7.845902403550000e-6
8.110096506839998e-6 8.383045065850002e-6 8.665029621650000e-6 8.956340187209999e-6
9.257275460390002e-6 9.568143038940002e-6 9.889259637380000e-6 1.022095130540000e-5
1.056355364720000e-5 1.091741204200000e-5 1.128288186450000e-5 1.166032870530000e-5
1.205012859090000e-5 1.245266820160000e-5 1.286834508900000e-5 1.329756788900000e-5
1.374075653310000e-5 1.419834245450000e-5 1.467076878900000e-5 1.515849057060000e-5
1.566197491870000e-5 1.618170121780000e-5 1.671816128660000e-5 1.727185953670000e-5
1.784331311780000e-5 1.843305204900000e-5 1.904161933400000e-5 1.966957105730000e-5
2.031747646079999e-5 2.098591799760000e-5 2.167549136080000e-5 2.238680548380000e-5
2.312048251060000e-5 2.387715773180001e-5 2.465747948350000e-5 2.546210900480000e-5
2.629172025110000e-5 2.714699965740000e-5 2.802864584800000e-5 2.893736928790000e-5
2.987389186930000e-5 3.083894642890000e-5 3.183327618870000e-5 3.285763411430001e-5
3.391278218320000e-5 3.499949055570000e-5 3.611853663950000e-5 3.727070404020000e-5
3.845678138699999e-5 3.967756102380000e-5 4.093383755500001e-5 4.222640623360001e-5
4.355606117940000e-5 4.492359341300000e-5 4.632978869180000e-5 4.777542513159999e-5
4.926127059759999e-5 5.078807984600000e-5 5.235659139770000e-5 5.396752412210001e-5
5.562157351110000e-5 5.731940761620002e-5 5.906166262650000e-5 6.084893805779999e-5
6.268179152440000e-5 6.456073306350001e-5 6.648621897589999e-5 6.845864514970001e-5
7.047833982710000e-5 7.254555577390000e-5 7.466046180640000e-5 7.682313363110000e-5
7.903354394340001e-5 8.129155173480001e-5 8.359689074849999e-5 8.594915702320000e-5
8.834779545820000e-5 9.079208533050000e-5 9.328112468759999e-5 9.581381353650000e-5
9.838883574199999e-5 1.010046395430000e-4 1.036594165900000e-4 1.063510793960000e-4
1.090772370890000e-4 1.118351693570000e-4 1.146217984380000e-4 1.174336590380000e-4
1.202668660200000e-4 1.231170797180000e-4 1.259794687020000e-4 1.288486698180000e-4
1.317187453290000e-4 1.345831369340000e-4 1.374346164730000e-4 1.402652330670000e-4
1.430662564780000e-4 1.458281164020000e-4 1.485403374370000e-4 1.511914694260000e-4
1.537690128640000e-4 1.562593390290000e-4 1.586476044910000e-4 1.609176596180000e-4
1.630519506700000e-4 1.650314150640000e-4 1.668353693480000e-4 1.684413893990000e-4
1.698251823390000e-4 1.709604496070000e-4 1.718187406210000e-4 1.723692964020000e-4
1.725788825070000e-4 1.724116105760000e-4 1.718287477510000e-4 1.707885131850000e-4
1.692458607990000e-4 1.671522474270000e-4 1.644553853780000e-4 1.610989784630000e-4
1.570224403990000e-4 1.521605945090000e-4 1.464433535150000e-4 1.397953781970000e-4
1.321357135890000e-4 1.233774013280000e-4 1.134270666680000e-4 1.021844786360000e-4
8.954208164850000e-5 7.538449690350001e-5 5.958799168579999e-5 4.201991468979999e-5
2.253809532690000e-5 9.902048916150001e-7 -2.278692265040000e-5 -4.896801260200000e-5
-7.774011666860002e-5 -1.093034278740000e-4 -1.438721459650000e-4 -1.816753961510000e-4
-2.229582041280000e-4 -2.679825305030000e-4 -3.170283678430000e-4 -3.703949037110000e-4
-4.284017532050001e-4 -4.913902646320000e-4 -5.597249020940000e-4 -6.337947089039999e-4
-7.140148558660000e-4 -8.008282785930000e-4 -8.947074081569999e-4 -9.961559994829999e-4
-1.105711061990000e-3 -1.223944897080000e-3 -1.351467247260000e-3 -1.488927561450000e-3
-1.637017381540000e-3 -1.796472854840000e-3 -1.968077377350000e-3 -2.152664372570000e-3
-2.351120210760000e-3 -2.564387273050000e-3 -2.793467165120000e-3 -3.039424084600000e-3
-3.303388346280000e-3 -3.586560068920000e-3 -3.890213026860000e-3 -4.215698669450000e-3
-4.564450310490001e-3 -4.937987489430000e-3 -5.337920505180000e-3 -5.765955122479999e-3
-6.223897449919999e-3 -6.713658987270001e-3 -7.237261838749999e-3 -7.796844086980002e-3
-8.394665321050001e-3 -9.033112309940000e-3 -9.714704810350000e-3 -1.044210149590000e-2
-1.121810599150000e-2 -1.204567299420000e-2 -1.292791445820000e-2 -1.386810581760000e-2
-1.486969221890000e-2 -1.593629472540000e-2 -1.707171645860000e-2 -1.827994862890000e-2
-1.956517640660000e-2 -2.093178457720000e-2 -2.238436291650000e-2 -2.392771121650000e-2
-2.556684388150000e-2 -2.730699400980000e-2 -2.915361686200000e-2 -3.111239261250000e-2
-3.318922826530000e-2 -3.539025860910000e-2 -3.772184606980000e-2 -4.019057931050000e-2
-4.280327041360000e-2 -4.556695046760001e-2 -4.848886336390001e-2 -5.157645760000000e-2
-5.483737586420000e-2 -5.827944216570000e-2 -6.191064625710000e-2 -6.573912508210000e-2
-6.977314096200001e-2 -7.402105622640000e-2 -7.849130397200001e-2 -8.319235462629999e-2
-8.813267797649999e-2 -9.332070031799999e-2 -9.876475636540000e-2 -1.044730355680000e-1
-1.104535224650000e-1 -1.167139307330000e-1 -1.232616305530000e-1 -1.301035690000000e-1
-1.372461831010000e-1 -1.446953053060000e-1 -1.524560611290000e-1 -1.605327587580000e-1
-1.689287705110000e-1 -1.776464061080000e-1 -1.866867777930000e-1 -1.960496574820000e-1
-2.057333262400000e-1 -2.157344165450000e-1 -2.260477479850000e-1 -2.366661572470000e-1
-2.475803234750000e-1 -2.587785903670000e-1 -2.702467866400000e-1 -2.819680468450000e-1
-2.939226348110000e-1 -3.060877723950000e-1 -3.184374765570000e-1 -3.309424081280000e-1
-3.435697360080000e-1 -3.562830208000000e-1 -3.690421221180000e-1 -3.818031339240000e-1
-3.945183522230000e-1 -4.071362792060000e-1 -4.196016674750000e-1 -4.318556072050000e-1
-4.438356580240000e-1 -4.554760259070000e-1 -4.667077836900000e-1 -4.774591318140001e-1
-4.876556940780000e-1 -4.972208418920000e-1 -5.060760405869999e-1 -5.141412142660000e-1
-5.213351334430000e-1 -5.275758457560000e-1 -5.327811993690000e-1 -5.368695586099999e-1
-5.397608930670001e-1 -5.413784489120000e-1 -5.416503626550000e-1 -5.405104354140001e-1
-5.378995075610000e-1 -5.337669102360000e-1 -5.280719955670000e-1 -5.207857467040000e-1
-5.118924130800000e-1 -5.013911722840000e-1 -4.892977338000001e-1 -4.756458546799999e-1
-4.604886293970000e-1 -4.438994667799999e-1 -4.259725461310000e-1 -4.068226132570000e-1
-3.865838931510000e-1 -3.654080511220000e-1 -3.434611665440000e-1 -3.209199642170000e-1
-2.979676523060000e-1 -2.747899433830000e-1 -2.515717376520000e-1 -2.284948562380000e-1
-2.057368327870000e-1 -1.834705518190000e-1 -1.618642763530000e-1 -1.410816689200000e-1
-1.212814781500000e-1 -1.026167550450000e-1 -8.523349144859999e-2 -6.926855730310000e-2
-5.484665778919999e-2 -4.207589116950000e-2 -3.104138946140000e-2 -2.179659103620000e-2
-1.435203041040000e-2 -8.662248117470000e-3 -4.612652343810000e-3 -2.009920120219999e-3
-5.816369896409999e-4 7.292903069950000e-6 1.140095677060000e-4 5.052518747610001e-5
4.318789842689999e-6 0.000000000000000e0 0.000000000000000e0 0.000000000000000e0
0.000000000000000e0 0.000000000000000e0 0.000000000000000e0 0.000000000000000e0
0.000000000000000e0 0.000000000000000e0 0.000000000000000e0 0.000000000000000e0
0.000000000000000e0 0.000000000000000e0 0.000000000000000e0 0.000000000000000e0
0.000000000000000e0 0.000000000000000e0 0.000000000000000e0 0.000000000000000e0
0.000000000000000e0 0.000000000000000e0 0.000000000000000e0 0.000000000000000e0
0.000000000000000e0 0.000000000000000e0 0.000000000000000e0 0.000000000000000e0
0.000000000000000e0 0.000000000000000e0 0.000000000000000e0 0.000000000000000e0
0.000000000000000e0 0.000000000000000e0 0.000000000000000e0 0.000000000000000e0
0.000000000000000e0 0.000000000000000e0 0.000000000000000e0 0.000000000000000e0
0.000000000000000e0 0.000000000000000e0 0.000000000000000e0 0.000000000000000e0
0.000000000000000e0 0.000000000000000e0 0.000000000000000e0 0.000000000000000e0
0.000000000000000e0 0.000000000000000e0 0.000000000000000e0 0.000000000000000e0
0.000000000000000e0 0.000000000000000e0 0.000000000000000e0 0.000000000000000e0
0.000000000000000e0 0.000000000000000e0 0.000000000000000e0 0.000000000000000e0
0.000000000000000e0 0.000000000000000e0 0.000000000000000e0 0.000000000000000e0
0.000000000000000e0 0.000000000000000e0 0.000000000000000e0 0.000000000000000e0
0.000000000000000e0 0.000000000000000e0 0.000000000000000e0 0.000000000000000e0
0.000000000000000e0 0.000000000000000e0 0.000000000000000e0 0.000000000000000e0
0.000000000000000e0 0.000000000000000e0 0.000000000000000e0 0.000000000000000e0
0.000000000000000e0 0.000000000000000e0 0.000000000000000e0 0.000000000000000e0
0.000000000000000e0 0.000000000000000e0 0.000000000000000e0 0.000000000000000e0
0.000000000000000e0 0.000000000000000e0 0.000000000000000e0 0.000000000000000e0
0.000000000000000e0 0.000000000000000e0 0.000000000000000e0 0.000000000000000e0
0.000000000000000e0 0.000000000000000e0 0.000000000000000e0 0.000000000000000e0
0.000000000000000e0 0.000000000000000e0 0.000000000000000e0 0.000000000000000e0
0.000000000000000e0 0.000000000000000e0 0.000000000000000e0 0.000000000000000e0
0.000000000000000e0 0.000000000000000e0 0.000000000000000e0 0.000000000000000e0
0.000000000000000e0 0.000000000000000e0 0.000000000000000e0 0.000000000000000e0
0.000000000000000e0 0.000000000000000e0 0.000000000000000e0 0.000000000000000e0
0.000000000000000e0 0.000000000000000e0 0.000000000000000e0 0.000000000000000e0
0.000000000000000e0 0.000000000000000e0 0.000000000000000e0 0.000000000000000e0
0.000000000000000e0 0.000000000000000e0 0.000000000000000e0 0.000000000000000e0
0.000000000000000e0 0.000000000000000e0 0.000000000000000e0 0.000000000000000e0
0.000000000000000e0 0.000000000000000e0 0.000000000000000e0 0.000000000000000e0
0.000000000000000e0 0.000000000000000e0 0.000000000000000e0 0.000000000000000e0
0.000000000000000e0 0.000000000000000e0 0.000000000000000e0 0.000000000000000e0
0.000000000000000e0 0.000000000000000e0 0.000000000000000e0 0.000000000000000e0
0.000000000000000e0 0.000000000000000e0 0.000000000000000e0 0.000000000000000e0
0.000000000000000e0 0.000000000000000e0 0.000000000000000e0 0.000000000000000e0
0.000000000000000e0 0.000000000000000e0 0.000000000000000e0 0.000000000000000e0
0.000000000000000e0 0.000000000000000e0 0.000000000000000e0 0.000000000000000e0
0.000000000000000e0 0.000000000000000e0 0.000000000000000e0 0.000000000000000e0
0.000000000000000e0 0.000000000000000e0 0.000000000000000e0 0.000000000000000e0
0.000000000000000e0 0.000000000000000e0 0.000000000000000e0 0.000000000000000e0
0.000000000000000e0 0.000000000000000e0 0.000000000000000e0 0.000000000000000e0
0.000000000000000e0 0.000000000000000e0 0.000000000000000e0 0.000000000000000e0
0.000000000000000e0 0.000000000000000e0 0.000000000000000e0 0.000000000000000e0
0.000000000000000e0 0.000000000000000e0 0.000000000000000e0 0.000000000000000e0
0.000000000000000e0 0.000000000000000e0 0.000000000000000e0 0.000000000000000e0
0.000000000000000e0 0.000000000000000e0 0.000000000000000e0 0.000000000000000e0
0.000000000000000e0 0.000000000000000e0 0.000000000000000e0 0.000000000000000e0
0.000000000000000e0 0.000000000000000e0 0.000000000000000e0 0.000000000000000e0
0.000000000000000e0 0.000000000000000e0 0.000000000000000e0 0.000000000000000e0
0.000000000000000e0 0.000000000000000e0 0.000000000000000e0 0.000000000000000e0
0.000000000000000e0 0.000000000000000e0 0.000000000000000e0 0.000000000000000e0
0.000000000000000e0 0.000000000000000e0 0.000000000000000e0 0.000000000000000e0
0.000000000000000e0 0.000000000000000e0 0.000000000000000e0 0.000000000000000e0
0.000000000000000e0 0.000000000000000e0 0.000000000000000e0 0.000000000000000e0
0.000000000000000e0 0.000000000000000e0 0.000000000000000e0 0.000000000000000e0
0.000000000000000e0 0.000000000000000e0 0.000000000000000e0 0.000000000000000e0
0.000000000000000e0 0.000000000000000e0 0.000000000000000e0 0.000000000000000e0
0.000000000000000e0 0.000000000000000e0 0.000000000000000e0 0.000000000000000e0
0.000000000000000e0 0.000000000000000e0 0.000000000000000e0 0.000000000000000e0
0.000000000000000e0 0.000000000000000e0 0.000000000000000e0 0.000000000000000e0
0.000000000000000e0 0.000000000000000e0 0.000000000000000e0 0.000000000000000e0
0.000000000000000e0 0.000000000000000e0 0.000000000000000e0 0.000000000000000e0
0.000000000000000e0 0.000000000000000e0 0.000000000000000e0 0.000000000000000e0
0.000000000000000e0 0.000000000000000e0 0.000000000000000e0 0.000000000000000e0
0.000000000000000e0 0.000000000000000e0 0.000000000000000e0 0.000000000000000e0
0.000000000000000e0 0.000000000000000e0 0.000000000000000e0
</PP_QIJ.5.6>
<PP_QIJ.6.6 first_index="6" second_index="6" composite_index="21">
0.000000000000000e0 -2.657289387030001e-14 -1.080854522420000e-13 -2.473080576160000e-13
-4.471202579820000e-13 -7.105147234760000e-13 -1.040601341440000e-12 -1.440611454670000e-12
-1.913902247760000e-12 -2.463961286700000e-12 -3.094411216850000e-12 -3.809014624910000e-12
-4.611679070419999e-12 -5.506462292649999e-12 -6.497577598850002e-12 -7.589399440220000e-12
-8.786469181839999e-12 -1.009350107350000e-11 -1.151538842790000e-11 -1.305721001410000e-11
-1.472423667240000e-11 -1.652193815960000e-11 -1.845599023160000e-11 -2.053228197150000e-11
-2.275692337270000e-11 -2.513625318400000e-11 -2.767684702720000e-11 -3.038552579560001e-11
-3.326936434379999e-11 -3.633570047790000e-11 -3.959214425670000e-11 -4.304658761550000e-11
-4.670721432180000e-11 -5.058251027560000e-11 -5.468127416580000e-11 -5.901262849429999e-11
-6.358603098100000e-11 -6.841128636319999e-11 -7.349855860090000e-11 -7.885838350449998e-11
-8.450168179759999e-11 -9.043977262950003e-11 -9.668438755490003e-11 -1.032476849940000e-10
-1.101422651920000e-10 -1.173811856930000e-10 -1.249779773450000e-10 -1.329466608630000e-10
-1.413017639480000e-10 -1.500583390140000e-10 -1.592319815070000e-10 -1.688388488630000e-10
-1.788956801170000e-10 -1.894198161860000e-10 -2.004292208470000e-10 -2.119425024330000e-10
-2.239789362850000e-10 -2.365584879600000e-10 -2.497018372489999e-10 -2.634304030090000e-10
-2.777663688550000e-10 -2.927327097280000e-10 -3.083532193749999e-10 -3.246525387760001e-10
-3.416561855389999e-10 -3.593905843030000e-10 -3.778830981920000e-10 -3.971620613330000e-10
-4.172568124970000e-10 -4.381977298930000e-10 -4.600162671440000e-10 -4.827449905040002e-10
-5.064176173469999e-10 -5.310690559680000e-10 -5.567354467520001e-10 -5.834542047469999e-10
-6.112640636950001e-10 -6.402051215700000e-10 -6.703188876690001e-10 -7.016483313149999e-10
-7.342379322270000e-10 -7.681337326050000e-10 -8.033833910020000e-10 -8.400362380290000e-10
-8.781433339690000e-10 -9.177575283540001e-10 -9.589335215770001e-10 -1.001727928610000e-9
-1.046199344890000e-9 -1.092408414460000e-9 -1.140417900440000e-9 -1.190292757880000e-9
-1.242100209150000e-9 -1.295909821790000e-9 -1.351793589170000e-9 -1.409826013790000e-9
-1.470084193410000e-9 -1.532647910220000e-9 -1.597599722940001e-9 -1.665025062110000e-9
-1.735012328620000e-9 -1.807652995590000e-9 -1.883041713730000e-9 -1.961276420290000e-9
-2.042458451670000e-9 -2.126692659960001e-9 -2.214087533340000e-9 -2.304755320680000e-9
-2.398812160280000e-9 -2.496378213049999e-9 -2.597577800230000e-9 -2.702539545760001e-9
-2.811396523490000e-9 -2.924286409430001e-9 -3.041351639120000e-9 -3.162739570439999e-9
-3.288602651840000e-9 -3.419098596379999e-9 -3.554390561630000e-9 -3.694647335680001e-9
-3.840043529519999e-9 -3.990759775879999e-9 -4.146982934890000e-9 -4.308906306660000e-9
-4.476729851119999e-9 -4.650660415290001e-9 -4.830911968279999e-9 -5.017705844250000e-9
-5.211270993610000e-9 -5.411844242779999e-9 -5.619670562660001e-9 -5.835003346300000e-9
-6.058104695910002e-9 -6.289245719670001e-9 -6.528706838470000e-9 -6.776778103220000e-9
-7.033759522700000e-9 -7.299961402669998e-9 -7.575704696390000e-9 -7.861321366989999e-9
-8.157154762140001e-9 -8.463560001359999e-9 -8.780904376439999e-9 -9.109567765400000e-9
-9.449943060420003e-9 -9.802436610279999e-9 -1.016746867770000e-8 -1.054547391210000e-8
-1.093690183830000e-8 -1.134221736210000e-8 -1.176190129220000e-8 -1.219645088030000e-8
-1.264638037920000e-8 -1.311222161970000e-8 -1.359452460720000e-8 -1.409385813800000e-8
-1.461081043650000e-8 -1.514598981410000e-8 -1.570002534990000e-8 -1.627356759440000e-8
-1.686728929740000e-8 -1.748188615919999e-8 -1.811807760840000e-8 -1.877660760470000e-8
-1.945824546960000e-8 -2.016378674380000e-8 -2.089405407490000e-8 -2.164989813340000e-8
-2.243219856000000e-8 -2.324186494529999e-8 -2.407983784090000e-8 -2.494708980540000e-8
-2.584462648510000e-8 -2.677348773069999e-8 -2.773474875110000e-8 -2.872952130640000e-8
-2.975895494000000e-8 -3.082423825230001e-8 -3.192660021600000e-8 -3.306731153640000e-8
-3.424768605610001e-8 -3.546908220630001e-8 -3.673290450720001e-8 -3.804060511690000e-8
-3.939368543290001e-8 -4.079369774610001e-8 -4.224224694930000e-8 -4.374099230259999e-8
-4.529164925699999e-8 -4.689599133840001e-8 -4.855585209339999e-8 -5.027312709920000e-8
-5.204977604010001e-8 -5.388782485139999e-8 -5.578936793470000e-8 -5.775657044520001e-8
-5.979167065370000e-8 -6.189698238670001e-8 -6.407489754509999e-8 -6.632788870620000e-8
-6.865851180949999e-8 -7.106940893000000e-8 -7.356331114210002e-8 -7.614304147570001e-8
-7.881151796840000e-8 -8.157175681589999e-8 -8.442687562380002e-8 -8.738009676540003e-8
-9.043475084509998e-8 -9.359428027490001e-8 -9.686224296419999e-8 -1.002423161270000e-7
-1.037383002120000e-7 -1.073541229560000e-7 -1.110938435650000e-7 -1.149616570290000e-7
-1.189618985740000e-7 -1.230990482510000e-7 -1.273777356690000e-7 -1.318027448790000e-7
-1.363790194050000e-7 -1.411116674390000e-7 -1.460059671860000e-7 -1.510673723830000e-7
-1.563015179850000e-7 -1.617142260190000e-7 -1.673115116260000e-7 -1.730995892800000e-7
-1.790848791950000e-7 -1.852740139250000e-7 -1.916738451650000e-7 -1.982914507479999e-7
-2.051341418540000e-7 -2.122094704300000e-7 -2.195252368250000e-7 -2.270894976470000e-7
-2.349105738510000e-7 -2.429970590550000e-7 -2.513578280940000e-7 -2.600020458150000e-7
-2.689391761170001e-7 -2.781789912499999e-7 -2.877315813590000e-7 -2.976073642980000e-7
-3.078170957000000e-7 -3.183718793289999e-7 -3.292831776909999e-7 -3.405628229330000e-7
-3.522230280200001e-7 -3.642763981930000e-7 -3.767359427230000e-7 -3.896150869470000e-7
-4.029276846000000e-7 -4.166880304450000e-7 -4.309108731949999e-7 -4.456114287329999e-7
-4.608053936320001e-7 -4.765089589720001e-7 -4.927388244470001e-7 -5.095122127760000e-7
-5.268468844020001e-7 -5.447611524719998e-7 -5.632738981139999e-7 -5.824045859760001e-7
-6.021732800480000e-7 -6.226006597390001e-7 -6.437080362040000e-7 -6.655173689140000e-7
-6.880512824539998e-7 -7.113330835229998e-7 -7.353867781369999e-7 -7.602370889989998e-7
-7.859094730199998e-7 -8.124301389659999e-7 -8.398260652049998e-7 -8.681250175120001e-7
-8.973555669169999e-7 -9.275471075350000e-7 -9.587298743500000e-7 -9.909349609079998e-7
-1.024194336850000e-6 -1.058540865250000e-6 -1.094008319690000e-6 -1.130631400980000e-6
-1.168445753490000e-6 -1.207487980990000e-6 -1.247795661900000e-6 -1.289407363850000e-6
-1.332362657530000e-6 -1.376702129530000e-6 -1.422467394270000e-6 -1.469701104700000e-6
-1.518446961770000e-6 -1.568749722360000e-6 -1.620655205600000e-6 -1.674210297470000e-6
-1.729462953190000e-6 -1.786462197590000e-6 -1.845258122790000e-6 -1.905901883330000e-6
-1.968445688180000e-6 -2.032942789520000e-6 -2.099447467830000e-6 -2.168015013060000e-6
-2.238701701420000e-6 -2.311564767510000e-6 -2.386662371120000e-6 -2.464053558510000e-6
-2.543798217510000e-6 -2.625957025920000e-6 -2.710591392590000e-6 -2.797763390690000e-6
-2.887535682370000e-6 -2.979971434050000e-6 -3.075134221750000e-6 -3.173087925410000e-6
-3.273896611430001e-6 -3.377624402410000e-6 -3.484335333060000e-6 -3.594093191240000e-6
-3.706961342690000e-6 -3.823002538539999e-6 -3.942278703860000e-6 -4.064850705960001e-6
-4.190778100859999e-6 -4.320118856090001e-6 -4.452929048140000e-6 -4.589262532470000e-6
-4.729170584090000e-6 -4.872701506329999e-6 -5.019900205500000e-6 -5.170807728770001e-6
-5.325460762490000e-6 -5.483891088010000e-6 -5.646124991750000e-6 -5.812182626190000e-6
-5.982077317949999e-6 -6.155814819260000e-6 -6.333392498379999e-6 -6.514798464580000e-6
-6.700010622930000e-6 -6.888995653509999e-6 -7.081707909730000e-6 -7.278088229669999e-6
-7.478062654229999e-6 -7.681541045140000e-6 -7.888415595760000e-6 -8.098559226619999e-6
-8.311823857709999e-6 -8.528038548220000e-6 -8.747007494549999e-6 -8.968507876149999e-6
-9.192287538279999e-6 -9.418062500199998e-6 -9.645514276029999e-6 -9.874286995060000e-6
-1.010398430720000e-5 -1.033416605820000e-5 -1.056434471840000e-5 -1.079398154720000e-5
-1.102248247510000e-5 -1.124919368240000e-5 -1.147339685460000e-5 -1.169430408980000e-5
-1.191105243490000e-5 -1.212269802440000e-5 -1.232820979310000e-5 -1.252646273350000e-5
-1.271623066560000e-5 -1.289617848510000e-5 -1.306485385370000e-5 -1.322067829160000e-5
-1.336193763180000e-5 -1.348677179090000e-5 -1.359316380900000e-5 -1.367892810730000e-5
-1.374169791070000e-5 -1.377891177470000e-5 -1.378779915780000e-5 -1.376536497050000e-5
-1.370837303150000e-5 -1.361332835530000e-5 -1.347645819080000e-5 -1.329369172370000e-5
-1.306063835280000e-5 -1.277256443940000e-5 -1.242436842650000e-5 -1.201055421680000e-5
-1.152520268670000e-5 -1.096194121280000e-5 -1.031391107130000e-5 -9.573732567839999e-6
-8.733467740180000e-6 -7.784580470289999e-6 -6.717893828320001e-6 -5.523544460380000e-6
-4.190933819089999e-6 -2.708676023060000e-6 -1.064542116130000e-6 7.545995167579999e-7
2.762846837300000e-6 4.975332222170000e-6 7.408295207309999e-6 1.007916022310000e-5
1.300661965630000e-5 1.621072259530000e-5 1.971296964190000e-5 2.353641419350000e-5
2.770577062930000e-5 3.224752986150000e-5 3.719008274140001e-5 4.256385184350001e-5
4.840143218320000e-5 5.473774146120000e-5 6.161018046330000e-5 6.905880428740002e-5
7.712650511040000e-5 8.585920725460001e-5 9.530607535849999e-5 1.055197365130000e-4
1.165565172730000e-4 1.284766965150000e-4 1.413447751660000e-4 1.552297639090000e-4
1.702054900150000e-4 1.863509245400000e-4 2.037505311970000e-4 2.224946382970000e-4
2.426798352170001e-4 2.644093949810000e-4 2.877937245940000e-4 3.129508448870000e-4
3.400069017450000e-4 3.690967106710000e-4 4.003643367850001e-4 4.339637124609999e-4
4.700592949270000e-4 5.088267663100000e-4 5.504537787190000e-4 5.951407471280000e-4
6.431016929590000e-4 6.945651414330001e-4 7.497750759180000e-4 8.089919526850000e-4
8.724937796470000e-4 9.405772628640001e-4 1.013559024770000e-3 1.091776898280000e-3
1.175591301210000e-3 1.265386695470000e-3 1.361573135990000e-3 1.464587914260000e-3
1.574897301890000e-3 1.692998399480000e-3 1.819421096810000e-3 1.954730149980000e-3
2.099527381950000e-3 2.254454012860000e-3 2.420193126700000e-3 2.597472281380000e-3
2.787066269200000e-3 2.989800035190000e-3 3.206551760730000e-3 3.438256120270000e-3
3.685907719080000e-3 3.950564719950000e-3 4.233352667130000e-3 4.535468515690000e-3
4.858184874580001e-3 5.202854471740000e-3 5.570914849389999e-3 5.963893297659999e-3
6.383412034510000e-3 6.831193639470000e-3 7.309066748600000e-3 7.818972017300001e-3
8.362968357410001e-3 8.943239453770000e-3 9.562100565169999e-3 1.022200561290000e-2
1.092555455950000e-2 1.167550107840000e-2 1.247476051330000e-2 1.332641812580000e-2
1.423373762410000e-2 1.520016996750000e-2 1.622936243490000e-2 1.732516794350000e-2
1.849165460190000e-2 1.973311547370000e-2 2.105407852780000e-2 2.245931674260000e-2
2.395385832760000e-2 2.554299701970000e-2 2.723230240270000e-2 2.902763019300000e-2
3.093513242480000e-2 3.296126745900000e-2 3.511280973070000e-2 3.739685913770000e-2
3.982084996230000e-2 4.239255920570001e-2 4.512011419840000e-2 4.801199933920000e-2
5.107706179540000e-2 5.432451598379999e-2 5.776394663250000e-2 6.140531020550000e-2
6.525893445210000e-2 6.933551582520002e-2 7.364611448900000e-2 7.820214661680001e-2
8.301537365849999e-2 8.809788823500000e-2 9.346209629530000e-2 9.912069515070000e-2
1.050866469820000e-1 1.113731473930000e-1 1.179935885750000e-1 1.249615166130000e-1
1.322905824850000e-1 1.399944862490000e-1 1.480869139670000e-1 1.565814668510000e-1
1.654915821780000e-1 1.748304454850000e-1 1.846108936160000e-1 1.948453081700000e-1
2.055454989670000e-1 2.167225771790000e-1 2.283868178030000e-1 2.405475112220000e-1
2.532128036610000e-1 2.663895263850000e-1 2.800830136000000e-1 2.942969090160000e-1
3.090329611850000e-1 3.242908076940000e-1 3.400677484370000e-1 3.563585081490000e-1
3.731549884620000e-1 3.904460097060000e-1 4.082170426799999e-1 4.264499305380000e-1
4.451226008740000e-1 4.642087679999999e-1 4.836776252990000e-1 5.034935274590000e-1
5.236156624000000e-1 5.439977127480001e-1 5.645875070530000e-1 5.853266614550000e-1
6.061502135590001e-1 6.269862518400000e-1 6.477555463380000e-1 6.683711898500000e-1
6.887382636690001e-1 7.087535482930000e-1 7.283053078780000e-1 7.472731874450000e-1
7.655282741210000e-1 7.829333873060000e-1 7.993436765720000e-1 8.146076179220000e-1
8.285685047059999e-1 8.410665221600000e-1 8.519414633940000e-1 8.610360726220000e-1
8.681998627530000e-1 8.732930103270000e-1 8.761895239960001e-1 8.767782295549999e-1
8.749590938379999e-1 8.706325698220001e-1 8.636999226899999e-1 8.540761962540000e-1
8.416944639480000e-1 8.265085650850001e-1 8.084958897340000e-1 7.876601718960000e-1
7.640341777170000e-1 7.376822465180000e-1 7.087025249770001e-1 6.772288067540000e-1
6.434317582320000e-1 6.075193900810000e-1 5.697365146859999e-1 5.303630543250000e-1
4.897110234720000e-1 4.481202446240000e-1 4.059529416780000e-1 3.635876654190000e-1
3.214130679990000e-1 2.798221559940000e-1 2.392074041230000e-1 1.999568703830000e-1
1.624510263390000e-1 1.270598193530000e-1 9.413935735210000e-2 6.402772604160000e-2
3.703952384490000e-2 1.345874359940000e-2 -6.470511269940000e-3 -2.255618832890000e-2
-3.467421395760000e-2 -4.278901846450000e-2 -4.697899864790000e-2 -4.746607738810000e-2
-4.464638161280000e-2 -3.911573241060000e-2 -3.167909329050000e-2 -2.332783158730000e-2
-1.516419168740000e-2 -8.252538313459999e-3 -3.389346819660000e-3 -8.234294891810002e-4
-5.066134902749999e-5 0.000000000000000e0 0.000000000000000e0 0.000000000000000e0
0.000000000000000e0 0.000000000000000e0 0.000000000000000e0 0.000000000000000e0
0.000000000000000e0 0.000000000000000e0 0.000000000000000e0 0.000000000000000e0
0.000000000000000e0 0.000000000000000e0 0.000000000000000e0 0.000000000000000e0
0.000000000000000e0 0.000000000000000e0 0.000000000000000e0 0.000000000000000e0
0.000000000000000e0 0.000000000000000e0 0.000000000000000e0 0.000000000000000e0
0.000000000000000e0 0.000000000000000e0 0.000000000000000e0 0.000000000000000e0
0.000000000000000e0 0.000000000000000e0 0.000000000000000e0 0.000000000000000e0
0.000000000000000e0 0.000000000000000e0 0.000000000000000e0 0.000000000000000e0
0.000000000000000e0 0.000000000000000e0 0.000000000000000e0 0.000000000000000e0
0.000000000000000e0 0.000000000000000e0 0.000000000000000e0 0.000000000000000e0
0.000000000000000e0 0.000000000000000e0 0.000000000000000e0 0.000000000000000e0
0.000000000000000e0 0.000000000000000e0 0.000000000000000e0 0.000000000000000e0
0.000000000000000e0 0.000000000000000e0 0.000000000000000e0 0.000000000000000e0
0.000000000000000e0 0.000000000000000e0 0.000000000000000e0 0.000000000000000e0
0.000000000000000e0 0.000000000000000e0 0.000000000000000e0 0.000000000000000e0
0.000000000000000e0 0.000000000000000e0 0.000000000000000e0 0.000000000000000e0
0.000000000000000e0 0.000000000000000e0 0.000000000000000e0 0.000000000000000e0
0.000000000000000e0 0.000000000000000e0 0.000000000000000e0 0.000000000000000e0
0.000000000000000e0 0.000000000000000e0 0.000000000000000e0 0.000000000000000e0
0.000000000000000e0 0.000000000000000e0 0.000000000000000e0 0.000000000000000e0
0.000000000000000e0 0.000000000000000e0 0.000000000000000e0 0.000000000000000e0
0.000000000000000e0 0.000000000000000e0 0.000000000000000e0 0.000000000000000e0
0.000000000000000e0 0.000000000000000e0 0.000000000000000e0 0.000000000000000e0
0.000000000000000e0 0.000000000000000e0 0.000000000000000e0 0.000000000000000e0
0.000000000000000e0 0.000000000000000e0 0.000000000000000e0 0.000000000000000e0
0.000000000000000e0 0.000000000000000e0 0.000000000000000e0 0.000000000000000e0
0.000000000000000e0 0.000000000000000e0 0.000000000000000e0 0.000000000000000e0
0.000000000000000e0 0.000000000000000e0 0.000000000000000e0 0.000000000000000e0
0.000000000000000e0 0.000000000000000e0 0.000000000000000e0 0.000000000000000e0
0.000000000000000e0 0.000000000000000e0 0.000000000000000e0 0.000000000000000e0
0.000000000000000e0 0.000000000000000e0 0.000000000000000e0 0.000000000000000e0
0.000000000000000e0 0.000000000000000e0 0.000000000000000e0 0.000000000000000e0
0.000000000000000e0 0.000000000000000e0 0.000000000000000e0 0.000000000000000e0
0.000000000000000e0 0.000000000000000e0 0.000000000000000e0 0.000000000000000e0
0.000000000000000e0 0.000000000000000e0 0.000000000000000e0 0.000000000000000e0
0.000000000000000e0 0.000000000000000e0 0.000000000000000e0 0.000000000000000e0
0.000000000000000e0 0.000000000000000e0 0.000000000000000e0 0.000000000000000e0
0.000000000000000e0 0.000000000000000e0 0.000000000000000e0 0.000000000000000e0
0.000000000000000e0 0.000000000000000e0 0.000000000000000e0 0.000000000000000e0
0.000000000000000e0 0.000000000000000e0 0.000000000000000e0 0.000000000000000e0
0.000000000000000e0 0.000000000000000e0 0.000000000000000e0 0.000000000000000e0
0.000000000000000e0 0.000000000000000e0 0.000000000000000e0 0.000000000000000e0
0.000000000000000e0 0.000000000000000e0 0.000000000000000e0 0.000000000000000e0
0.000000000000000e0 0.000000000000000e0 0.000000000000000e0 0.000000000000000e0
0.000000000000000e0 0.000000000000000e0 0.000000000000000e0 0.000000000000000e0
0.000000000000000e0 0.000000000000000e0 0.000000000000000e0 0.000000000000000e0
0.000000000000000e0 0.000000000000000e0 0.000000000000000e0 0.000000000000000e0
0.000000000000000e0 0.000000000000000e0 0.000000000000000e0 0.000000000000000e0
0.000000000000000e0 0.000000000000000e0 0.000000000000000e0 0.000000000000000e0
0.000000000000000e0 0.000000000000000e0 0.000000000000000e0 0.000000000000000e0
0.000000000000000e0 0.000000000000000e0 0.000000000000000e0 0.000000000000000e0
0.000000000000000e0 0.000000000000000e0 0.000000000000000e0 0.000000000000000e0
0.000000000000000e0 0.000000000000000e0 0.000000000000000e0 0.000000000000000e0
0.000000000000000e0 0.000000000000000e0 0.000000000000000e0 0.000000000000000e0
0.000000000000000e0 0.000000000000000e0 0.000000000000000e0 0.000000000000000e0
0.000000000000000e0 0.000000000000000e0 0.000000000000000e0 0.000000000000000e0
0.000000000000000e0 0.000000000000000e0 0.000000000000000e0 0.000000000000000e0
0.000000000000000e0 0.000000000000000e0 0.000000000000000e0 0.000000000000000e0
0.000000000000000e0 0.000000000000000e0 0.000000000000000e0 0.000000000000000e0
0.000000000000000e0 0.000000000000000e0 0.000000000000000e0 0.000000000000000e0
0.000000000000000e0 0.000000000000000e0 0.000000000000000e0 0.000000000000000e0
0.000000000000000e0 0.000000000000000e0 0.000000000000000e0 0.000000000000000e0
0.000000000000000e0 0.000000000000000e0 0.000000000000000e0 0.000000000000000e0
0.000000000000000e0 0.000000000000000e0 0.000000000000000e0 0.000000000000000e0
0.000000000000000e0 0.000000000000000e0 0.000000000000000e0 0.000000000000000e0
0.000000000000000e0 0.000000000000000e0 0.000000000000000e0 0.000000000000000e0
0.000000000000000e0 0.000000000000000e0 0.000000000000000e0 0.000000000000000e0
0.000000000000000e0 0.000000000000000e0 0.000000000000000e0 0.000000000000000e0
0.000000000000000e0 0.000000000000000e0 0.000000000000000e0 0.000000000000000e0
0.000000000000000e0 0.000000000000000e0 0.000000000000000e0
</PP_QIJ.6.6>
</PP_AUGMENTATION>
</PP_NONLOCAL>
<PP_PSWFC>
<PP_CHI.1 index="1" label="3S" l="0" occupation="2.000000000000e0" n="0" pseudo_energy="0.000000000000e0" cutoff_radius="1.000000000000e1" ultrasoft_cutoff_radius="1.700000000000e0">
0.000000000000000e0 2.382492108420000e-7 4.805025166340000e-7 7.268272115270000e-7
9.772917206360001e-7 1.231965619050000e-6 1.490919651170000e-6 1.754225750320000e-6
2.021957058810000e-6 2.294187948160000e-6 2.570994039820000e-6 2.852452226160000e-6
3.138640691830000e-6 3.429638935470000e-6 3.725527791810000e-6 4.026389454120000e-6
4.332307497010000e-6 4.643366899719999e-6 4.959654069629998e-6 5.281256866340000e-6
5.608264626050000e-6 5.940768186369999e-6 6.278859911550000e-6 6.622633718140001e-6
6.972185101110000e-6 7.327611160339998e-6 7.689010627580000e-6 8.056483893930000e-6
8.430133037690000e-6 8.810061852710000e-6 9.196375877250000e-6 9.589182423279999e-6
9.988590606280001e-6 1.039471137560000e-5 1.080765754520000e-5 1.122754382500000e-5
1.165448685280000e-5 1.208860522680000e-5 1.253001953820000e-5 1.297885240500000e-5
1.343522850600000e-5 1.389927461520000e-5 1.437111963740000e-5 1.485089464370000e-5
1.533873290830000e-5 1.583476994480000e-5 1.633914354460000e-5 1.685199381489999e-5
1.737346321740000e-5 1.790369660820000e-5 1.844284127789999e-5 1.899104699240000e-5
1.954846603480000e-5 2.011525324730000e-5 2.069156607470000e-5 2.127756460760000e-5
2.187341162740000e-5 2.247927265100000e-5 2.309531597740000e-5 2.372171273370000e-5
2.435863692330000e-5 2.500626547370000e-5 2.566477828640000e-5 2.633435828570000e-5
2.701519147090000e-5 2.770746696680000e-5 2.841137707680001e-5 2.912711733630000e-5
2.985488656699999e-5 3.059488693200000e-5 3.134732399190000e-5 3.211240676229999e-5
3.289034777130000e-5 3.368136311920000e-5 3.448567253780000e-5 3.530349945209999e-5
3.613507104180000e-5 3.698061830480000e-5 3.784037612150000e-5 3.871458331930000e-5
3.960348273980000e-5 4.050732130570000e-5 4.142635008990000e-5 4.236082438450000e-5
4.331100377249999e-5 4.427715219930001e-5 4.525953804660000e-5 4.625843420630000e-5
4.727411815700001e-5 4.830687204029999e-5 4.935698274009999e-5 5.042474196130000e-5
5.151044631180000e-5 5.261439738400000e-5 5.373690183940000e-5 5.487827149309999e-5
5.603882340089999e-5 5.721887994719999e-5 5.841876893430000e-5 5.963882367410001e-5
6.087938308000000e-5 6.214079176150001e-5 6.342340011970000e-5 6.472756444500000e-5
6.605364701530001e-5 6.740201619770001e-5 6.877304655000000e-5 7.016711892490001e-5
7.158462057619999e-5 7.302594526590001e-5 7.449149337410001e-5 7.598167200960000e-5
7.749689512339999e-5 7.903758362379999e-5 8.060416549290000e-5 8.219707590590000e-5
8.381675735180000e-5 8.546365975650000e-5 8.713824060729999e-5 8.884096508070000e-5
9.057230617120000e-5 9.233274482270001e-5 9.412277006210001e-5 9.594287913560001e-5
9.779357764620000e-5 9.967537969449999e-5 1.015888080220000e-4 1.035343941540000e-4
1.055126785520000e-4 1.075242107580000e-4 1.095695495520000e-4 1.116492631050000e-4
1.137639291370000e-4 1.159141350760000e-4 1.181004782270000e-4 1.203235659300000e-4
1.225840157340000e-4 1.248824555670000e-4 1.272195239110000e-4 1.295958699780000e-4
1.320121538930000e-4 1.344690468730000e-4 1.369672314210000e-4 1.395074015050000e-4
1.420902627610000e-4 1.447165326830000e-4 1.473869408250000e-4 1.501022290020000e-4
1.528631514960000e-4 1.556704752690000e-4 1.585249801730000e-4 1.614274591640000e-4
1.643787185300000e-4 1.673795781090000e-4 1.704308715160000e-4 1.735334463820000e-4
1.766881645800000e-4 1.798959024720000e-4 1.831575511480000e-4 1.864740166770000e-4
1.898462203530000e-4 1.932750989610000e-4 1.967616050260000e-4 2.003067070860000e-4
2.039113899570000e-4 2.075766550090000e-4 2.113035204410000e-4 2.150930215680000e-4
2.189462111060001e-4 2.228641594660000e-4 2.268479550500000e-4 2.308987045560000e-4
2.350175332810000e-4 2.392055854390000e-4 2.434640244770000e-4 2.477940333960000e-4
2.521968150840000e-4 2.566735926470000e-4 2.612256097500000e-4 2.658541309650000e-4
2.705604421170000e-4 2.753458506480000e-4 2.802116859760000e-4 2.851592998650000e-4
2.901900668030000e-4 2.953053843820000e-4 3.005066736880000e-4 3.057953796940000e-4
3.111729716660000e-4 3.166409435639999e-4 3.222008144670000e-4 3.278541289880000e-4
3.336024577050000e-4 3.394473976000000e-4 3.453905725020000e-4 3.514336335369999e-4
3.575782595900000e-4 3.638261577700000e-4 3.701790638840000e-4 3.766387429220000e-4
3.832069895480000e-4 3.898856285950000e-4 3.966765155790000e-4 4.035815372110000e-4
4.106026119210000e-4 4.177416903970000e-4 4.250007561200000e-4 4.323818259240000e-4
4.398869505520000e-4 4.475182152260000e-4 4.552777402339999e-4 4.631676815110001e-4
4.711902312450000e-4 4.793476184869999e-4 4.876421097690001e-4 4.960760097350001e-4
5.046516617870001e-4 5.133714487310002e-4 5.222377934460000e-4 5.312531595560000e-4
5.404200521140000e-4 5.497410183070000e-4 5.592186481570000e-4 5.688555752470002e-4
5.786544774560001e-4 5.886180777000001e-4 5.987491446960000e-4 6.090504937320000e-4
6.195249874490001e-4 6.301755366430001e-4 6.410051010729999e-4 6.520166902879999e-4
6.632133644680001e-4 6.745982352720001e-4 6.861744667130000e-4 6.979452760339999e-4
7.099139346090000e-4 7.220837688569999e-4 7.344581611680000e-4 7.470405508460000e-4
7.598344350740000e-4 7.728433698850000e-4 7.860709711600000e-4 7.995209156320000e-4
8.131969419219999e-4 8.271028515720001e-4 8.412425101200000e-4 8.556198481700001e-4
8.702388624969998e-4 8.851036171640001e-4 9.002182446570000e-4 9.155869470419999e-4
9.312139971419999e-4 9.471037397320000e-4 9.632605927549999e-4 9.796890485600001e-4
9.963936751630001e-4 1.013379117520000e-3 1.030650098850000e-3 1.048211421910000e-3
1.066067970410000e-3 1.084224710330000e-3 1.102686691340000e-3 1.121459048200000e-3
1.140547002230000e-3 1.159955862740000e-3 1.179691028570000e-3 1.199757989540000e-3
1.220162328070000e-3 1.240909720690000e-3 1.262005939700000e-3 1.283456854720000e-3
1.305268434400000e-3 1.327446748100000e-3 1.349997967570000e-3 1.372928368720000e-3
1.396244333390000e-3 1.419952351130000e-3 1.444059021070000e-3 1.468571053750000e-3
1.493495273060000e-3 1.518838618140000e-3 1.544608145350000e-3 1.570811030280000e-3
1.597454569800000e-3 1.624546184110000e-3 1.652093418840000e-3 1.680103947240000e-3
1.708585572320000e-3 1.737546229100000e-3 1.766993986850000e-3 1.796937051410000e-3
1.827383767550000e-3 1.858342621300000e-3 1.889822242450000e-3 1.921831406950000e-3
1.954379039500000e-3 1.987474216040000e-3 2.021126166430000e-3 2.055344277030000e-3
2.090138093460000e-3 2.125517323360000e-3 2.161491839110000e-3 2.198071680810000e-3
2.235267059060000e-3 2.273088358010000e-3 2.311546138340000e-3 2.350651140340000e-3
2.390414287000000e-3 2.430846687260000e-3 2.471959639210000e-3 2.513764633390000e-3
2.556273356200000e-3 2.599497693280000e-3 2.643449733030000e-3 2.688141770200000e-3
2.733586309450000e-3 2.779796069120000e-3 2.826783984950000e-3 2.874563213950000e-3
2.923147138300000e-3 2.972549369370000e-3 3.022783751730000e-3 3.073864367390000e-3
3.125805539940000e-3 3.178621838919999e-3 3.232328084220000e-3 3.286939350520001e-3
3.342470971940000e-3 3.398938546649999e-3 3.456357941660000e-3 3.514745297670000e-3
3.574117034050000e-3 3.634489853870000e-3 3.695880749100000e-3 3.758307005870000e-3
3.821786209840000e-3 3.886336251710000e-3 3.951975332850000e-3 4.018721970990000e-3
4.086595006110000e-3 4.155613606410000e-3 4.225797274409999e-3 4.297165853210000e-3
4.369739532850001e-3 4.443538856860000e-3 4.518584728880000e-3 4.594898419510000e-3
4.672501573280000e-3 4.751416215760001e-3 4.831664760840000e-3 4.913270018210000e-3
4.996255200980000e-3 5.080643933469999e-3 5.166460259240000e-3 5.253728649229999e-3
5.342474010160001e-3 5.432721693110000e-3 5.524497502280000e-3 5.617827704020000e-3
5.712739036040000e-3 5.809258716860000e-3 5.907414455520001e-3 6.007234461470000e-3
6.108747454800000e-3 6.211982676700000e-3 6.316969900100000e-3 6.423739440790000e-3
6.532322168589999e-3 6.642749519040001e-3 6.755053505249999e-3 6.869266730129999e-3
6.985422398940000e-3 7.103554332240001e-3 7.223696979100001e-3 7.345885430750000e-3
7.470155434620001e-3 7.596543408720001e-3 7.725086456520001e-3 7.855822382190000e-3
7.988789706300001e-3 8.124027682009999e-3 8.261576311750002e-3 8.401476364340001e-3
8.543769392689999e-3 8.688497752040000e-3 8.835704618670002e-3 8.985434009380000e-3
9.137730801349999e-3 9.292640752830000e-3 9.450210524360001e-3 9.610487700750001e-3
9.773520813700001e-3 9.939359365270001e-3 1.010805385200000e-2 1.027965578980000e-2
1.045421774020000e-2 1.063179333630000e-2 1.081243731100000e-2 1.099620552550000e-2
1.118315499830000e-2 1.137334393640000e-2 1.156683176660000e-2 1.176367916840000e-2
1.196394810780000e-2 1.216770187250000e-2 1.237500510840000e-2 1.258592385700000e-2
1.280052559520000e-2 1.301887927520000e-2 1.324105536670000e-2 1.346712590100000e-2
1.369716451560000e-2 1.393124650170000e-2 1.416944885290000e-2 1.441185031570000e-2
1.465853144210000e-2 1.490957464440000e-2 1.516506425210000e-2 1.542508657030000e-2
1.568972994170000e-2 1.595908480980000e-2 1.623324378550000e-2 1.651230171590000e-2
1.679635575610000e-2 1.708550544320000e-2 1.737985277480000e-2 1.767950228900000e-2
1.798456114860000e-2 1.829513922870000e-2 1.861134920750000e-2 1.893330666150000e-2
1.926113016380000e-2 1.959494138690000e-2 1.993486521040000e-2 2.028102983190000e-2
2.063356688340000e-2 2.099261155260000e-2 2.135830270900000e-2 2.173078303540000e-2
2.211019916500000e-2 2.249670182420000e-2 2.289044598160000e-2 2.329159100330000e-2
2.370030081460000e-2 2.411674406910000e-2 2.454109432400000e-2 2.497353022410000e-2
2.541423569280000e-2 2.586340013160000e-2 2.632121862800000e-2 2.678789217220000e-2
2.726362788330000e-2 2.774863924500000e-2 2.824314635129999e-2 2.874737616270000e-2
2.926156277350000e-2 2.978594769020000e-2 3.032078012190000e-2 3.086631728280000e-2
3.142282470790000e-2 3.199057658159999e-2 3.256985608050000e-2 3.316095573020000e-2
3.376417777760000e-2 3.437983457820000e-2 3.500824899990000e-2 3.564975484340000e-2
3.630469728000000e-2 3.697343330740000e-2 3.765633222390000e-2 3.835377612260000e-2
3.906616040460000e-2 3.979389431380000e-2 4.053740149290000e-2 4.129712056030000e-2
4.207350571200000e-2 4.286702734480000e-2 4.367817270510000e-2 4.450744656180000e-2
4.535537190590000e-2 4.622249067500000e-2 4.710936450610000e-2 4.801657551530000e-2
4.894472710640000e-2 4.989444480820000e-2 5.086637714149999e-2 5.186119651640000e-2
5.287960015990000e-2 5.392231107559999e-2 5.499007903390000e-2 5.608368159519999e-2
5.720392516440000e-2 5.835164607890000e-2 5.952771172819999e-2 6.073302170690001e-2
6.196850899920000e-2 6.323514119640000e-2 6.453392174569999e-2 6.586589123020000e-2
6.723212867880001e-2 6.863375290670000e-2 7.007192388209999e-2 7.154784412140001e-2
7.306276010810000e-2 7.461796373479999e-2 7.621479376550000e-2 7.785463731620000e-2
7.953893134870000e-2 8.126916417650000e-2 8.304687697680000e-2 8.487366530459999e-2
8.675118060500001e-2 8.868113171510000e-2 9.066528635260001e-2 9.270547258120001e-2
9.480358024699999e-2 9.696156237540000e-2 9.918143652139999e-2 1.014652860610000e-1
1.038152614110000e-1 1.062335811710000e-1 1.087225331680000e-1 1.112844753850000e-1
1.139218367770000e-1 1.166371179240000e-1 1.194328915440000e-1 1.223118028020000e-1
1.252765694320000e-1 1.283299816170000e-1 1.314749016280000e-1 1.347142631740000e-1
1.380510704480000e-1 1.414883968260000e-1 1.450293832040000e-1 1.486772359120000e-1
1.524352241950000e-1 1.563066771960000e-1 1.602949804200000e-1 1.644035716180000e-1
1.686359360520000e-1 1.729956010860000e-1 1.774861300630000e-1 1.821111153890000e-1
1.868741707880000e-1 1.917789226610000e-1 1.968290004740000e-1 2.020280261300000e-1
2.073796022360000e-1 2.128872992100000e-1 2.185546411400000e-1 2.243850903380000e-1
2.303820304930000e-1 2.365487483620000e-1 2.428884139020000e-1 2.494040587870000e-1
2.560985532040000e-1 2.629745808750000e-1 2.700346122160000e-1 2.772808755560000e-1
2.847153263700000e-1 2.923396144390000e-1 3.001550489070000e-1 3.081625611810000e-1
3.163626656510000e-1 3.247554182240000e-1 3.333403726790000e-1 3.421165348810000e-1
3.510823149220000e-1 3.602354773030000e-1 3.695730892920000e-1 3.790914676710000e-1
3.887861241270000e-1 3.986517096190000e-1 4.086819581360000e-1 4.188696303380000e-1
4.292064577010001e-1 4.396830878610000e-1 4.502890320170000e-1 4.610126153710000e-1
4.718409317040000e-1 4.827598033740000e-1 4.937537481260000e-1 5.048059542680000e-1
5.158982658509999e-1 5.270111795960000e-1 5.381238553249999e-1 5.492141415990000e-1
5.602586181230000e-1 5.712326561770000e-1 5.821104978840000e-1 5.928653544199999e-1
6.034695223330000e-1 6.138945158959999e-1 6.241112118099999e-1 6.340900006550000e-1
6.438009372200000e-1 6.532138793880000e-1 6.622986027570001e-1 6.710248760660001e-1
6.793624813819999e-1 6.872811638650001e-1 6.947505003760000e-1 7.017396865080000e-1
7.082172612960001e-1 7.141508229490000e-1 7.195068446900001e-1 7.242507875370000e-1
7.283478412550000e-1 7.317648262570000e-1 7.344740864890000e-1 7.364600994550000e-1
7.377199463380000e-1 7.382539936660000e-1 7.380642660900000e-1 7.371544242630001e-1
7.355297713700000e-1 7.331972490410000e-1 7.301654269920000e-1 7.264444847260000e-1
7.220461862680000e-1 7.169838465940001e-1 7.112722913440001e-1 7.049278086460000e-1
6.979680950380000e-1 6.904121943860000e-1 6.822804319699999e-1 6.735943426430000e-1
6.643765953039999e-1 6.546509125740000e-1 6.444419878840000e-1 6.337753988510000e-1
6.226775190710000e-1 6.111754272050000e-1 5.992968153470000e-1 5.870698956010000e-1
5.745233066570000e-1 5.616860193899999e-1 5.485872430420001e-1 5.352563311139999e-1
5.217226883209999e-1 5.080156778629999e-1 4.941645301220000e-1 4.801982522350000e-1
4.661455394140000e-1 4.520346876820000e-1 4.378935087040000e-1 4.237492466270000e-1
4.096284974340000e-1 3.955571310130000e-1 3.815602163090000e-1 3.676619500170000e-1
3.538855891010000e-1 3.402533878080000e-1 3.267865393610000e-1 3.135051231750000e-1
3.004280576320000e-1 2.875730593370000e-1 2.749566087190000e-1 2.625939228640000e-1
2.504989352350000e-1 2.386842830360000e-1 2.271613016470000e-1 2.159400266990000e-1
2.050292030040000e-1 1.944363006880000e-1 1.841675375620000e-1 1.742279079060000e-1
1.646212165560000e-1 1.553501183360000e-1 1.464161616560000e-1 1.378198362480000e-1
1.295606238470000e-1 1.216370517580000e-1 1.140467481830000e-1 1.067864992330000e-1
9.985230662279999e-2 9.323944597750000e-2 8.694252490060000e-2 8.095554074970000e-2
7.527193743500000e-2 6.988466122240000e-2 6.478621500900000e-2 5.996871110250001e-2
5.542392211439999e-2 5.114333004880000e-2 4.711817332200000e-2 4.333949183560000e-2
3.979816994440000e-2 3.648497746419999e-2 3.339060863710000e-2 3.050571920279999e-2
2.782096153460000e-2 2.532701797130000e-2 2.301463231350000e-2 2.087463958080000e-2
1.889799398790000e-2 1.707579519080000e-2 1.539931274480000e-2 1.386000878260000e-2
1.244955884110000e-2 1.115987081880000e-2 9.983101990169999e-3 8.911674052200000e-3
7.938286145310000e-3 7.055925835130000e-3 6.257878028800000e-3 5.537731838770000e-3
4.889385407830000e-3 4.307048744089999e-3 3.785244622090000e-3 3.318807635500000e-3
2.902881496680000e-3 2.532914700750000e-3 2.204654680160000e-3 1.914140591080000e-3
1.657694877720000e-3 1.431913768990000e-3 1.233656862280000e-3 1.060035951260000e-3
9.084032508490001e-4 7.763391689480001e-4 6.616397675450001e-4 5.623040483380000e-4
4.765211881570000e-4 4.026578395010000e-4 3.392456000850000e-4 2.849687439180000e-4
2.386522943980000e-4 1.992505082440000e-4 1.658358273430000e-4 1.375883444120000e-4
1.137858176410000e-4 9.379425941179999e-5 7.705911489960000e-5 6.309703786520000e-5
5.148826331000000e-5 4.186956995399999e-5 3.392781964880001e-5 2.739405589520000e-5
2.203813954650000e-5 1.766389650810000e-5 1.410474974960000e-5 1.121980615810000e-5
8.890367630460000e-6 7.016835246710000e-6 5.515975331609999e-6 4.318516528060000e-6
3.367047365800000e-6 2.614188429250000e-6 2.021006414920000e-6 1.555647537770000e-6
1.192165196430000e-6 9.095191207829998e-7 6.907251299379999e-7 5.221364261829999e-7
3.928391226180000e-7 2.941464217360000e-7 2.191775096140000e-7 1.625087892970000e-7
1.198865359310000e-7 8.799140768679997e-8 6.424648621729999e-8 4.666164717020000e-8
3.370807632670000e-8 2.421765358300000e-8 1.730273010440000e-8 1.229252965380000e-8
8.683020237779997e-9 6.097634273280001e-9 4.256672135619999e-9 2.953612910750000e-9
2.036884967510000e-9 1.395924808380000e-9 9.505823353250001e-10 6.431204696710001e-10
4.322127274820001e-10 2.884690407580000e-10 1.911224168110000e-10 1.255909652260000e-10
8.169486583570002e-11 5.235894758530000e-11 3.267112928749999e-11 1.919695690060000e-11
9.472221340779999e-12 1.609856681160000e-12 0.000000000000000e0 0.000000000000000e0
0.000000000000000e0 0.000000000000000e0 0.000000000000000e0 0.000000000000000e0
0.000000000000000e0 0.000000000000000e0 0.000000000000000e0 0.000000000000000e0
0.000000000000000e0 0.000000000000000e0 0.000000000000000e0 0.000000000000000e0
0.000000000000000e0 0.000000000000000e0 0.000000000000000e0 0.000000000000000e0
0.000000000000000e0 0.000000000000000e0 0.000000000000000e0 0.000000000000000e0
0.000000000000000e0 0.000000000000000e0 0.000000000000000e0 0.000000000000000e0
0.000000000000000e0 0.000000000000000e0 0.000000000000000e0 0.000000000000000e0
0.000000000000000e0 0.000000000000000e0 0.000000000000000e0 0.000000000000000e0
0.000000000000000e0 0.000000000000000e0 0.000000000000000e0 0.000000000000000e0
0.000000000000000e0 0.000000000000000e0 0.000000000000000e0 0.000000000000000e0
0.000000000000000e0 0.000000000000000e0 0.000000000000000e0 0.000000000000000e0
0.000000000000000e0 0.000000000000000e0 0.000000000000000e0 0.000000000000000e0
0.000000000000000e0 0.000000000000000e0 0.000000000000000e0 0.000000000000000e0
0.000000000000000e0 0.000000000000000e0 0.000000000000000e0 0.000000000000000e0
0.000000000000000e0 0.000000000000000e0 0.000000000000000e0 0.000000000000000e0
0.000000000000000e0 0.000000000000000e0 0.000000000000000e0 0.000000000000000e0
0.000000000000000e0 0.000000000000000e0 0.000000000000000e0 0.000000000000000e0
0.000000000000000e0 0.000000000000000e0 0.000000000000000e0 0.000000000000000e0
0.000000000000000e0 0.000000000000000e0 0.000000000000000e0 0.000000000000000e0
0.000000000000000e0 0.000000000000000e0 0.000000000000000e0 0.000000000000000e0
0.000000000000000e0 0.000000000000000e0 0.000000000000000e0 0.000000000000000e0
0.000000000000000e0 0.000000000000000e0 0.000000000000000e0 0.000000000000000e0
0.000000000000000e0 0.000000000000000e0 0.000000000000000e0 0.000000000000000e0
0.000000000000000e0 0.000000000000000e0 0.000000000000000e0 0.000000000000000e0
0.000000000000000e0 0.000000000000000e0 0.000000000000000e0 0.000000000000000e0
0.000000000000000e0 0.000000000000000e0 0.000000000000000e0 0.000000000000000e0
0.000000000000000e0 0.000000000000000e0 0.000000000000000e0 0.000000000000000e0
0.000000000000000e0 0.000000000000000e0 0.000000000000000e0
</PP_CHI.1>
<PP_CHI.2 index="2" label="3P" l="1" occupation="2.000000000000e0" n="0" pseudo_energy="0.000000000000e0" cutoff_radius="1.000000000000e1" ultrasoft_cutoff_radius="1.700000000000e0">
0.000000000000000e0 4.277304949810000e-13 1.739797113630001e-12 3.980793316599999e-12
7.197069753109999e-12 1.143679795020000e-11 1.675003622990000e-11 2.318879793200001e-11
3.080712201970000e-11 3.966114615250000e-11 4.980918230980000e-11 6.131179505290001e-11
7.423188251659997e-11 8.863476022410000e-11 1.045882478220000e-10 1.221627588350000e-10
1.414313935480000e-10 1.624700351150000e-10 1.853574490130001e-10 2.101753859550000e-10
2.370086883740000e-10 2.659454006120000e-10 2.970768829240000e-10 3.304979294540000e-10
3.663068902870000e-10 4.046057977449999e-10 4.455004970519999e-10 4.891007815360000e-10
5.355205325060001e-10 5.848778639740000e-10 6.372952723849999e-10 6.928997915329999e-10
7.518231528269999e-10 8.142019511050000e-10 8.801778161710001e-10 9.498975902690001e-10
1.023513511680000e-9 1.101183404650000e-9 1.183070875900000e-9 1.269345517890000e-9
1.360183119120000e-9 1.455765881640000e-9 1.556282646120000e-9 1.661929124610000e-9
1.772908141410000e-9 1.889429882130000e-9 2.011712151390000e-9 2.139980639420000e-9
2.274469197760000e-9 2.415420124480000e-9 2.563084459260000e-9 2.717722288530000e-9
2.879603061170001e-9 3.049005915050000e-9 3.226220014770000e-9 3.411544901000001e-9
3.605290851890000e-9 3.807779256800001e-9 4.019343002889999e-9 4.240326875059999e-9
4.471087969470000e-9 4.711996121409999e-9 4.963434347709999e-9 5.225799304410000e-9
5.499501760129998e-9 5.784967085560000e-9 6.082635759920000e-9 6.392963894579998e-9
6.716423774750001e-9 7.053504419700001e-9 7.404712162140001e-9 7.770571247490000e-9
8.151624453620000e-9 8.548433731859999e-9 8.961580869899999e-9 9.391668177440000e-9
9.839319195220003e-9 1.030517942840000e-8 1.078991710500000e-8 1.129422396030000e-8
1.181881604770000e-8 1.236443457820000e-8 1.293184678760000e-8 1.352184683400000e-8
1.413525672550000e-8 1.477292728010000e-8 1.543573911800000e-8 1.612460368780000e-8
1.684046432840000e-8 1.758429736600000e-8 1.835711324970000e-8 1.915995772540000e-8
1.999391304950000e-8 2.086009924470000e-8 2.175967539780000e-8 2.269384100270000e-8
2.366383734900000e-8 2.467094895700000e-8 2.571650506340000e-8 2.680188115590000e-8
2.792850056180001e-8 2.909783608950000e-8 3.031141172619999e-8 3.157080439470001e-8
3.287764576800001e-8 3.423362414789999e-8 3.564048640600000e-8 3.710003999200000e-8
3.861415500960000e-8 4.018476636390000e-8 4.181387598120000e-8 4.350355510509999e-8
4.525594667089999e-8 4.707326775970000e-8 4.895781213790000e-8 5.091195288180000e-8
5.293814509219999e-8 5.503892870110001e-8 5.721693137479998e-8 5.947487151440000e-8
6.181556136029998e-8 6.424191020070000e-8 6.675692769029999e-8 6.936372728190000e-8
7.206552977449999e-8 7.486566698240001e-8 7.776758552879999e-8 8.077485076930000e-8
8.389115084800000e-8 8.712030089230000e-8 9.046624735020000e-8 9.393307247479999e-8
9.752499896200002e-8 1.012463947460000e-7 1.051017779560000e-7 1.090958220460000e-7
1.132333610940000e-7 1.175193952840000e-7 1.219590965730000e-7 1.265578145560000e-7
1.313210825210000e-7 1.362546237180000e-7 1.413643578370000e-7 1.466564077100000e-7
1.521371062350000e-7 1.578130035400000e-7 1.636908743930000e-7 1.697777258530000e-7
1.760808051950000e-7 1.826076080920000e-7 1.893658870870000e-7 1.963636603420000e-7
2.036092206890000e-7 2.111111449920000e-7 2.188783038200000e-7 2.269198714560000e-7
2.352453362400000e-7 2.438645112660001e-7 2.527875454450000e-7 2.620249349370000e-7
2.715875349800000e-7 2.814865721150000e-7 2.917336568260001e-7 3.023407966160001e-7
3.133204095150000e-7 3.246853380630000e-7 3.364488637520000e-7 3.486247219700000e-7
3.612271174450000e-7 3.742707402210000e-7 3.877707821700000e-7 4.017429540650000e-7
4.162035032400000e-7 4.311692318410000e-7 4.466575157009999e-7 4.626863238539999e-7
4.792742387199999e-7 4.964404769560002e-7 5.142049110409999e-7 5.325880915690001e-7
5.516112703150000e-7 5.712964240810001e-7 5.916662793460001e-7 6.127443377580000e-7
6.345549024890000e-7 6.571231054870001e-7 6.804749356529999e-7 7.046372679689999e-7
7.296378936219999e-7 7.555055511480001e-7 7.822699586290000e-7 8.099618469899999e-7
8.386129944230001e-7 8.682562619739999e-7 8.989256303470000e-7 9.306562379529998e-7
9.634844202459998e-7 9.974477504030000e-7 1.032585081380000e-6 1.068936589380000e-6
1.106543818840000e-6 1.145449728880000e-6 1.185698741410000e-6 1.227336790770000e-6
1.270411375130000e-6 1.314971609650000e-6 1.361068281320000e-6 1.408753905850000e-6
1.458082786290000e-6 1.509111073790000e-6 1.561896830380000e-6 1.616500093810000e-6
1.672982944690000e-6 1.731409575860000e-6 1.791846364120000e-6 1.854361944360000e-6
1.919027286290001e-6 1.985915773670000e-6 2.055103286300000e-6 2.126668284770000e-6
2.200691898100000e-6 2.277258014300000e-6 2.356453374060000e-6 2.438367667590000e-6
2.523093634780000e-6 2.610727168680000e-6 2.701367422590000e-6 2.795116920699999e-6
2.892081672520000e-6 2.992371291200000e-6 3.096099115860000e-6 3.203382337990001e-6
3.314342132320000e-6 3.429103791900001e-6 3.547796867969999e-6 3.670555314420000e-6
3.797517637240000e-6 3.928827049000000e-6 4.064631628560001e-6 4.205084486260000e-6
4.350343934640001e-6 4.500573664959999e-6 4.655942929760001e-6 4.816626731540000e-6
4.982806017910000e-6 5.154667883300000e-6 5.332405777520000e-6 5.516219721450001e-6
5.706316529940000e-6 5.902910042369999e-6 6.106221360999999e-6 6.316479097329999e-6
6.533919626950000e-6 6.758787352870000e-6 6.991334977959999e-6 7.231823786460001e-6
7.480523935139999e-6 7.737714754310000e-6 8.003685058990001e-6 8.278733470750002e-6
8.563168750279999e-6 8.857310141430002e-6 9.161487726770000e-6 9.476042795300000e-6
9.801328222549998e-6 1.013770886360000e-5 1.048556195960000e-5 1.084527755760000e-5
1.121725894520000e-5 1.160192309950000e-5 1.199970115150000e-5 1.241103886610000e-5
1.283639713860000e-5 1.327625250770000e-5 1.373109768620000e-5 1.420144210950000e-5
1.468781250290000e-5 1.519075346780000e-5 1.571082808800000e-5 1.624861855670000e-5
1.680472682440000e-5 1.737977526910000e-5 1.797440738880000e-5 1.858928851820000e-5
1.922510656870000e-5 1.988257279440000e-5 2.056242258360000e-5 2.126541627720000e-5
2.199234001500000e-5 2.274400661010000e-5 2.352125645410000e-5 2.432495845180000e-5
2.515601098810000e-5 2.601534292780001e-5 2.690391464910000e-5 2.782271911210000e-5
2.877278296360000e-5 2.975516767940000e-5 3.077097074510000e-5 3.182132687740000e-5
3.290740928610000e-5 3.403043097940000e-5 3.519164611329999e-5 3.639235138690000e-5
3.763388748430000e-5 3.891764056660001e-5 4.024504381330000e-5 4.161757901630001e-5
4.303677822849999e-5 4.450422546720000e-5 4.602155847660000e-5 4.759047054830001e-5
4.921271240519999e-5 5.089009414840000e-5 5.262448726990000e-5 5.441782673390000e-5
5.627211312849999e-5 5.818941489049999e-5 6.017187060540000e-5 6.222169138500001e-5
6.434116332649999e-5 6.653265005389999e-5 6.879859534600000e-5 7.114152585399999e-5
7.356405390970000e-5 7.606888043049999e-5 7.865879792170000e-5 8.133669358100002e-5
8.410555250809999e-5 8.696846102300002e-5 8.992861009669999e-5 9.298929889829999e-5
9.615393846200000e-5 9.942605547860001e-5 1.028092962150000e-4 1.063074305680000e-4
1.099243562510000e-4 1.136641031300000e-4 1.175308377000000e-4 1.215288677140000e-4
1.256626469720000e-4 1.299367802700000e-4 1.343560285160000e-4 1.389253140200000e-4
1.436497259630000e-4 1.485345260530000e-4 1.535851543700000e-4 1.588072354090000e-4
1.642065843310000e-4 1.697892134180000e-4 1.755613387600000e-4 1.815293871510000e-4
1.877000032330000e-4 1.940800568770000e-4 2.006766508100000e-4 2.074971285050000e-4
2.145490823350000e-4 2.218403620100000e-4 2.293790832870000e-4 2.371736369850000e-4
2.452326983020000e-4 2.535652364469999e-4 2.621805246000000e-4 2.710881502010001e-4
2.802980256010001e-4 2.898203990590000e-4 2.996658661240000e-4 3.098453813880000e-4
3.203702706500000e-4 3.312522434840000e-4 3.425034062300000e-4 3.541362754330000e-4
3.661637917290000e-4 3.785993342010000e-4 3.914567352230000e-4 4.047502958060000e-4
4.184948014600000e-4 4.327055385930000e-4 4.473983114660001e-4 4.625894597179999e-4
4.782958764860000e-4 4.945350271340000e-4 5.113249686180001e-4 5.286843695009999e-4
5.466325306480000e-4 5.651894066169999e-4 5.843756277720001e-4 6.042125231450001e-4
6.247221440659999e-4 6.459272885939999e-4 6.678515267689999e-4 6.905192267149999e-4
7.139555816320000e-4 7.381866376839998e-4 7.632393228379999e-4 7.891414766740001e-4
8.159218811930000e-4 8.436102926690001e-4 8.722374745740000e-4 9.018352316070001e-4
9.324364448739999e-4 9.640751082470000e-4 9.967863659530000e-4 1.030606551420000e-3
1.065573227440000e-3 1.101725227660000e-3 1.139102699500000e-3 1.177747148500000e-3
1.217701484120000e-3 1.259010067170000e-3 1.301718758710000e-3 1.345874970690000e-3
1.391527718240000e-3 1.438727673750000e-3 1.487527222680000e-3 1.537980521390000e-3
1.590143556710000e-3 1.644074207700000e-3 1.699832309310000e-3 1.757479718320000e-3
1.817080381330000e-3 1.878700405140000e-3 1.942408129430000e-3 2.008274201880000e-3
2.076371655760000e-3 2.146775990170000e-3 2.219565252870000e-3 2.294820125950000e-3
2.372624014280000e-3 2.453063136920000e-3 2.536226621610000e-3 2.622206602300000e-3
2.711098320030000e-3 2.803000227000000e-3 2.898014094270001e-3 2.996245122810000e-3
3.097802058420000e-3 3.202797310260000e-3 3.311347073410000e-3 3.423571455399999e-3
3.539594606910001e-3 3.659544856740000e-3 3.783554851269999e-3 3.911761698360000e-3
4.044307116090000e-3 4.181337586220000e-3 4.323004512730000e-3 4.469464385509999e-3
4.620878949290000e-3 4.777415378110001e-3 4.939246455370000e-3 5.106550759770000e-3
5.279512857080000e-3 5.458323498230000e-3 5.643179823610001e-3 5.834285573960000e-3
6.031851307940000e-3 6.236094626600000e-3 6.447240404970001e-3 6.665521030940001e-3
6.891176651609999e-3 7.124455427440001e-3 7.365613794210000e-3 7.614916733169999e-3
7.872638049550002e-3 8.139060659629999e-3 8.414476886559999e-3 8.699188765230000e-3
8.993508356390000e-3 9.297758070150000e-3 9.612270999269999e-3 9.937391262269999e-3
1.027347435670000e-2 1.062088752280000e-2 1.098001011760000e-2 1.135123400010000e-2
1.173496392690000e-2 1.213161795990000e-2 1.254162788440000e-2 1.296543963950000e-2
1.340351376010000e-2 1.385632583070000e-2 1.432436695160000e-2 1.480814421690000e-2
1.530818120530000e-2 1.582501848330000e-2 1.635921412060000e-2 1.691134421870000e-2
1.748200345190000e-2 1.807180562040000e-2 1.868138421740000e-2 1.931139300720000e-2
1.996250661680000e-2 2.063542113950000e-2 2.133085475050000e-2 2.204954833440000e-2
2.279226612410000e-2 2.355979635090000e-2 2.435295190560000e-2 2.517257100880000e-2
2.601951789150000e-2 2.689468348410000e-2 2.779898611360000e-2 2.873337220710000e-2
2.969881700200000e-2 3.069632526080000e-2 3.172693198870000e-2 3.279170315390000e-2
3.389173640780000e-2 3.502816180400000e-2 3.620214251330000e-2 3.741487553380000e-2
3.866759239220000e-2 3.996155983520000e-2 4.129808050680000e-2 4.267849360910000e-2
4.410417554380000e-2 4.557654052909999e-2 4.709704119030000e-2 4.866716911800000e-2
5.028845538980001e-2 5.196247105200000e-2 5.369082755420001e-2 5.547517713230000e-2
5.731721313350000e-2 5.921867027790000e-2 6.118132484850001e-2 6.320699480399999e-2
6.529753980580000e-2 6.745486115170001e-2 6.968090160840000e-2 7.197764513259999e-2
7.434711647359999e-2 7.679138064509999e-2 7.931254225890000e-2 8.191274470709999e-2
8.459416918430001e-2 8.735903353579999e-2 9.020959092189999e-2 9.314812828440001e-2
9.617696460190000e-2 9.929844892170001e-2 1.025149581520000e-1 1.058288946010000e-1
1.092426832450000e-1 1.127587687090000e-1 1.163796119490000e-1 1.201076865970000e-1
1.239454749770000e-1 1.278954637410000e-1 1.319601391220000e-1 1.361419817610000e-1
1.404434610960000e-1 1.448670292570000e-1 1.494151144480000e-1 1.540901137750000e-1
1.588943854490000e-1 1.638302403430000e-1 1.688999328190000e-1 1.741056507630000e-1
1.794495047520000e-1 1.849335162630000e-1 1.905596048260000e-1 1.963295740100000e-1
2.022450961190000e-1 2.083076954680000e-1 2.145187300820000e-1 2.208793716790000e-1
2.273905837490000e-1 2.340530975780000e-1 2.408673860320000e-1 2.478336349410000e-1
2.549517119280000e-1 2.622211325570000e-1 2.696410237130000e-1 2.772100841890000e-1
2.849265425190000e-1 2.927881122290000e-1 3.007919447860000e-1 3.089345806970000e-1
3.172118994460000e-1 3.256190691490000e-1 3.341504971420000e-1 3.427997830030000e-1
3.515596758670000e-1 3.604220382610000e-1 3.693778190150000e-1 3.784170381470000e-1
3.875287868060000e-1 3.967012454460000e-1 4.059217232010000e-1 4.151767209310000e-1
4.244520193850000e-1 4.337327922760000e-1 4.430037416450000e-1 4.522492494260000e-1
4.614535346250000e-1 4.706007997500000e-1 4.796753433200000e-1 4.886616076620000e-1
4.975441237140000e-1 5.063073086380000e-1 5.149350705860000e-1 5.234101823820000e-1
5.317134094920000e-1 5.398224286630001e-1 5.477106691090000e-1 5.553463736980000e-1
5.626924509820000e-1 5.697081252800000e-1 5.763540711460000e-1 5.826029652200000e-1
5.884425807250000e-1 5.938637513090001e-1 5.988580041510000e-1 6.034175671050001e-1
6.075354096210001e-1 6.112052721740000e-1 6.144216936020000e-1 6.171800348730000e-1
6.194764998609999e-1 6.213081518510000e-1 6.226729268390000e-1 6.235696424150000e-1
6.239980036560000e-1 6.239586047920000e-1 6.234529283050000e-1 6.224833401680000e-1
6.210530829940000e-1 6.191662657509999e-1 6.168278518369999e-1 6.140436441380000e-1
6.108202688110000e-1 6.071651564300000e-1 6.030865221050000e-1 5.985933432610000e-1
5.936953365350000e-1 5.884029325220000e-1 5.827272496470000e-1 5.766800659740000e-1
5.702737900190000e-1 5.635214294899999e-1 5.564365587770000e-1 5.490332842820001e-1
5.413262081859999e-1 5.333303899260001e-1 5.250613057850000e-1 5.165348061290000e-1
5.077670705150000e-1 4.987745605340000e-1 4.895739704870000e-1 4.801821761360000e-1
4.706161815510000e-1 4.608930646770000e-1 4.510299216210000e-1 4.410438106260000e-1
4.309516957040000e-1 4.207703911819999e-1 4.105165070660000e-1 4.002063966510000e-1
3.898561061630000e-1 3.794813279200000e-1 3.690973566060000e-1 3.587190501070000e-1
3.483607942510000e-1 3.380364727820000e-1 3.277594416770000e-1 3.175425089310000e-1
3.073979187140000e-1 2.973373408320000e-1 2.873718642290000e-1 2.775119952560000e-1
2.677676593740000e-1 2.581482068290000e-1 2.486624209350000e-1 2.393185293800000e-1
2.301242171890000e-1 2.210866416860000e-1 2.122124481290000e-1 2.035077863030000e-1
1.949783268550000e-1 1.866292776180000e-1 1.784653988520000e-1 1.704910176580000e-1
1.627100406740000e-1 1.551259653680000e-1 1.477418892400000e-1 1.405605173400000e-1
1.335841676600000e-1 1.268147749110000e-1 1.202538924770000e-1 1.139026931630000e-1
1.077619687370000e-1 1.018321289520000e-1 9.611320017520001e-2 9.060482433979999e-2
8.530625839890000e-2 8.021637492290001e-2 7.533366402620000e-2 7.065623711780001e-2
6.618183259469999e-2 6.190782380280000e-2 5.783122927040000e-2 5.394872536460000e-2
5.025666125470000e-2 4.675107617280000e-2 4.342771875350000e-2 4.028206831620000e-2
3.730935780059999e-2 3.450459813370000e-2 3.186260370350000e-2 2.937801867510000e-2
2.704534381960000e-2 2.485896358620000e-2 2.281317310910000e-2 2.090220489970000e-2
1.912025495830000e-2 1.746150809020000e-2 1.592016221400000e-2 1.449045149410000e-2
1.316666813950000e-2 1.194318275190000e-2 1.081446311930000e-2 9.775091388069999e-3
8.819779558280000e-3 7.943383280499999e-3 7.140913943519999e-3 6.407549067350001e-3
5.738641029010000e-3 5.129724165720000e-3 4.576520311600000e-3 4.074942836310000e-3
3.621099262530000e-3 3.211292547659999e-3 2.842021120190000e-3 2.509977766660000e-3
2.212047467190001e-3 1.945304280050000e-3 1.707007375580000e-3 1.494596319550000e-3
1.305685704210000e-3 1.138059222890000e-3 9.896632806849999e-4 8.586002297730001e-4
7.431213136829999e-4 6.416193995900001e-4 5.526215726579999e-4 4.747816513489999e-4
4.068726304080000e-4 3.477794384700000e-4 2.964915128620000e-4 2.520955999040000e-4
2.137687536080000e-4 1.807715549240000e-4 1.524415795530000e-4 1.281871373250000e-4
1.074813013350000e-4 8.985624054720001e-5 7.489786535289999e-5 6.224079168539999e-5
5.156362574830000e-5 4.258456820810000e-5 3.505733385180000e-5 2.876738020080000e-5
2.352843641820000e-5 1.917932201600000e-5 1.558104336600000e-5 1.261415482190000e-5
1.017637034580000e-5 8.180410895860000e-6 6.552072428250000e-6 5.228499197009999e-6
4.156647057990001e-6 3.291921682870000e-6 2.596976939850000e-6 2.040659176420000e-6
1.597083722600000e-6 1.244830601090000e-6 9.662471609910002e-7 7.468461279610001e-7
5.747883671269999e-7 4.404404710830001e-7 3.359981006649999e-7 2.551668087100000e-7
1.928928571810000e-7 1.451372876300000e-7 1.086872176340000e-7 8.099900661769999e-8
6.006856006320000e-8 4.432461932749999e-8 3.254141422190000e-8 2.376753722080000e-8
1.726833255330000e-8 1.247948205350000e-8 8.969814497670001e-9 6.411671108369999e-9
4.557423024949999e-9 3.220969041430000e-9 2.263241448420000e-9 1.580918754280000e-9
1.097687596480000e-9 7.575188022790000e-10 5.195249750020001e-10 3.540520238220000e-10
2.397272361570000e-10 1.612439912910001e-10 1.077099712220000e-10 7.142345462680000e-11
4.697248055550000e-11 3.057562976780000e-11 1.960198406250001e-11 1.222238495170000e-11
7.155126303800001e-12 3.477175738180000e-12 4.771700304039999e-13 0.000000000000000e0
0.000000000000000e0 0.000000000000000e0 0.000000000000000e0 0.000000000000000e0
0.000000000000000e0 0.000000000000000e0 0.000000000000000e0 0.000000000000000e0
0.000000000000000e0 0.000000000000000e0 0.000000000000000e0 0.000000000000000e0
0.000000000000000e0 0.000000000000000e0 0.000000000000000e0 0.000000000000000e0
0.000000000000000e0 0.000000000000000e0 0.000000000000000e0 0.000000000000000e0
0.000000000000000e0 0.000000000000000e0 0.000000000000000e0 0.000000000000000e0
0.000000000000000e0 0.000000000000000e0 0.000000000000000e0 0.000000000000000e0
0.000000000000000e0 0.000000000000000e0 0.000000000000000e0 0.000000000000000e0
0.000000000000000e0 0.000000000000000e0 0.000000000000000e0 0.000000000000000e0
0.000000000000000e0 0.000000000000000e0 0.000000000000000e0 0.000000000000000e0
0.000000000000000e0 0.000000000000000e0 0.000000000000000e0 0.000000000000000e0
0.000000000000000e0 0.000000000000000e0 0.000000000000000e0 0.000000000000000e0
0.000000000000000e0 0.000000000000000e0 0.000000000000000e0 0.000000000000000e0
0.000000000000000e0 0.000000000000000e0 0.000000000000000e0 0.000000000000000e0
0.000000000000000e0 0.000000000000000e0 0.000000000000000e0 0.000000000000000e0
0.000000000000000e0 0.000000000000000e0 0.000000000000000e0 0.000000000000000e0
0.000000000000000e0 0.000000000000000e0 0.000000000000000e0 0.000000000000000e0
0.000000000000000e0 0.000000000000000e0 0.000000000000000e0 0.000000000000000e0
0.000000000000000e0 0.000000000000000e0 0.000000000000000e0 0.000000000000000e0
0.000000000000000e0 0.000000000000000e0 0.000000000000000e0 0.000000000000000e0
0.000000000000000e0 0.000000000000000e0 0.000000000000000e0
</PP_CHI.2>
</PP_PSWFC>
<PP_RHOATOM>
0.000000000000000e0 5.879415372870000e-12 2.391456773690001e-11 5.471842128410000e-11
9.892809382940001e-11 1.572057322570000e-10 2.302394185950000e-10 3.187441077709999e-10
4.234625981380000e-10 5.451665359010001e-10 6.846574546090000e-10 8.427678509120001e-10
1.020362297840000e-9 1.218338596910000e-9 1.437628970290000e-9 1.679201294620000e-9
1.944060377650000e-9 2.233249279360000e-9 2.547850679010000e-9 2.888988289720000e-9
3.257828322200000e-9 3.655580999280001e-9 4.083502123090000e-9 4.542894696570000e-9
5.035110601259999e-9 5.561552333230000e-9 6.123674799249999e-9 6.722987175110001e-9
7.361054828359999e-9 8.039501307620000e-9 8.760010400719999e-9 9.524328264019999e-9
1.033426562550000e-8 1.119170006380000e-8 1.209857836630000e-8 1.305691896840000e-8
1.406881447730000e-8 1.513643428280000e-8 1.626202725800000e-8 1.744792455380000e-8
1.869654248910000e-8 2.001038554130000e-8 2.139204943929999e-8 2.284422436330000e-8
2.436969825570000e-8 2.597136024420000e-8 2.765220418480000e-8 2.941533232550000e-8
3.126395909660000e-8 3.320141503079999e-8 3.523115081960001e-8 3.735674150720000e-8
3.958189083070001e-8 4.191043570750000e-8 4.434635087850000e-8 4.689375371040000e-8
4.955690916190000e-8 5.234023492249999e-8 5.524830672560000e-8 5.828586384590000e-8
6.145781478369999e-8 6.476924314599999e-8 6.822541372780000e-8 7.183177880300001e-8
7.559398463100000e-8 7.951787818570000e-8 8.360951411550001e-8 8.787516194260000e-8
9.232131350770000e-8 9.695469067060003e-8 1.017822532750000e-7 1.068112073840000e-7
1.120490138000000e-7 1.175033968770000e-7 1.231823536290000e-7 1.290941631580000e-7
1.352473963980000e-7 1.416509261970000e-7 1.483139377420000e-7 1.552459393360000e-7
1.624567735570000e-7 1.699566287790000e-7 1.777560511070000e-7 1.858659567060000e-7
1.942976445540000e-7 2.030628096390000e-7 2.121735565919999e-7 2.216424138040000e-7
2.314823480080000e-7 2.417067793720000e-7 2.523295970970000e-7 2.633651755590000e-7
2.748283909890000e-7 2.867346387350000e-7 2.990998511060000e-7 3.119405158250000e-7
3.252736951130000e-7 3.391170454300000e-7 3.534888378750000e-7 3.684079793000000e-7
3.838940341289999e-7 3.999672469300000e-7 4.166485657530000e-7 4.339596662660000e-7
4.519229767140001e-7 4.705617037250001e-7 4.898998590010001e-7 5.099622869160001e-7
5.307746930540000e-7 5.523636737210000e-7 5.747567464640001e-7 5.979823816260000e-7
6.220700349820001e-7 6.470501814770000e-7 6.729543501249999e-7 6.998151600900002e-7
7.276663579959999e-7 7.565428565089999e-7 7.864807742329999e-7 8.175174769639998e-7
8.496916203520000e-7 8.830431940049998e-7 9.176135671090000e-7 9.534455355890001e-7
9.905833708819999e-7 1.029072870370000e-6 1.068961409520000e-6 1.110297995810000e-6
1.153133324500000e-6 1.197519836260000e-6 1.243511776800000e-6 1.291165258510000e-6
1.340538324210000e-6 1.391691013050000e-6 1.444685428650000e-6 1.499585809620000e-6
1.556458602340000e-6 1.615372536390000e-6 1.676398702400000e-6 1.739610632640000e-6
1.805084384280000e-6 1.872898625550000e-6 1.943134724790000e-6 2.015876842490000e-6
2.091212026580000e-6 2.169230310810000e-6 2.250024816590000e-6 2.333691858199999e-6
2.420331051690000e-6 2.510045427360001e-6 2.602941546139999e-6 2.699129619880000e-6
2.798723635790000e-6 2.901841485009999e-6 3.008605095680000e-6 3.119140570390000e-6
3.233578328410000e-6 3.352053252670000e-6 3.474704841840000e-6 3.601677367430001e-6
3.733120036360000e-6 3.869187158990000e-6 4.010038322850001e-6 4.155838572280000e-6
4.306758594230001e-6 4.462974910240000e-6 4.624670075079999e-6 4.792032882050000e-6
4.965258575269999e-6 5.144549069180000e-6 5.330113175529999e-6 5.522166838010000e-6
5.720933374870000e-6 5.926643729850001e-6 6.139536731469999e-6 6.359859361330001e-6
6.587867031320000e-6 6.823823870350000e-6 7.068003020830000e-6 7.320686945119999e-6
7.582167742459998e-6 7.852747476649999e-6 8.132738514799998e-6 8.422463877619998e-6
8.722257601630000e-6 9.032465113550002e-6 9.353443617519998e-6 9.685562495390000e-6
1.002920372060000e-5 1.038476228610000e-5 1.075264664690000e-5 1.113327917740000e-5
1.152709664430000e-5 1.193455069600000e-5 1.235610836780000e-5 1.279225260500000e-5
1.324348280310000e-5 1.371031536700000e-5 1.419328428830000e-5 1.469294174330000e-5
1.520985871020000e-5 1.574462560800000e-5 1.629785295640000e-5 1.687017205880000e-5
1.746223570820000e-5 1.807471891630000e-5 1.870831966880000e-5 1.936375970500000e-5
2.004178532430000e-5 2.074316822020000e-5 2.146870634260000e-5 2.221922478870000e-5
2.299557672510000e-5 2.379864434020000e-5 2.462933982980000e-5 2.548860641490000e-5
2.637741939550000e-5 2.729678723890000e-5 2.824775270550000e-5 2.923139401219999e-5
3.024882603630000e-5 3.130120155900000e-5 3.238971255140000e-5 3.351559150470000e-5
3.468011280479999e-5 3.588459415330000e-5 3.713039803750000e-5 3.841893324939999e-5
3.975165645660001e-5 4.113007382600001e-5 4.255574270310000e-5 4.403027334740000e-5
4.555533072750000e-5 4.713263637599999e-5 4.876397030790000e-5 5.045117300399999e-5
5.219614746050000e-5 5.400086130949999e-5 5.586734900990001e-5 5.779771411330000e-5
5.979413160589999e-5 6.185885033090001e-5 6.399419549120000e-5 6.620257123800001e-5
6.848646334670001e-5 7.084844198300000e-5 7.329116456320000e-5 7.581737871040001e-5
7.842992531159999e-5 8.113174167740000e-5 8.392586480919999e-5 8.681543477620000e-5
8.980369820750001e-5 9.289401190100000e-5 9.608984655530000e-5 9.939479062770001e-5
1.028125543220000e-4 1.063469737100000e-4 1.100020149960000e-4 1.137817789230000e-4
1.176905053220000e-4 1.217325778290000e-4 1.259125287470000e-4 1.302350440790000e-4
1.347049687300000e-4 1.393273118860000e-4 1.441072525700000e-4 1.490501453910000e-4
1.541615264820000e-4 1.594471196420000e-4 1.649128426830000e-4 1.705648139910000e-4
1.764093593090000e-4 1.824530187490000e-4 1.887025540390000e-4 1.951649560120000e-4
2.018474523550000e-4 2.087575156080000e-4 2.159028714430000e-4 2.232915072100000e-4
2.309316807840000e-4 2.388319296970000e-4 2.470010805850000e-4 2.554482589490000e-4
2.641828992450000e-4 2.732147553120000e-4 2.825539111550000e-4 2.922107920779999e-4
3.021961762070000e-4 3.125212063870000e-4 3.231974024790001e-4 3.342366740800000e-4
3.456513336520000e-4 3.574541101080000e-4 3.696581628400000e-4 3.822770962220001e-4
3.953249745990000e-4 4.088163377730000e-4 4.227662170120000e-4 4.371901515859999e-4
4.521042058640000e-4 4.675249869730000e-4 4.834696630520000e-4 4.999559821140000e-4
5.170022915270001e-4 5.346275581570000e-4 5.528513891740000e-4 5.716940535450000e-4
5.911765042540001e-4 6.113204012410000e-4 6.321481351250000e-4 6.536828516870001e-4
6.759484771910001e-4 6.989697445159999e-4 7.227722201760001e-4 7.473823322160000e-4
7.728273990340000e-4 7.991356591569999e-4 8.263363019909999e-4 8.544594995879999e-4
8.835364394539999e-4 9.135993584350000e-4 9.446815777169999e-4 9.768175389680000e-4
1.010042841670000e-3 1.044394281640000e-3 1.079909890890000e-3 1.116628978670000e-3
1.154592173940000e-3 1.193841469160000e-3 1.234420265570000e-3 1.276373419870000e-3
1.319747292430000e-3 1.364589797080000e-3 1.410950452480000e-3 1.458880435130000e-3
1.508432634150000e-3 1.559661707720000e-3 1.612624141370000e-3 1.667378308190000e-3
1.723984530830000e-3 1.782505145590000e-3 1.843004568440000e-3 1.905549363230000e-3
1.970208311980000e-3 2.037052487350000e-3 2.106155327530000e-3 2.177592713260000e-3
2.251443047440000e-3 2.327787337120000e-3 2.406709278010000e-3 2.488295341680000e-3
2.572634865380000e-3 2.659820144590000e-3 2.749946528480000e-3 2.843112518210000e-3
2.939419868190000e-3 3.038973690440000e-3 3.141882562070000e-3 3.248258635910000e-3
3.358217754490000e-3 3.471879567409999e-3 3.589367652020000e-3 3.710809637800000e-3
3.836337334200000e-3 3.966086862279999e-3 4.100198790049999e-3 4.238818271670000e-3
4.382095190600000e-3 4.530184306750000e-3 4.683245407690000e-3 4.841443464099999e-3
5.004948789370001e-3 5.173937203540000e-3 5.348590201710000e-3 5.529095126750000e-3
5.715645346700001e-3 5.908440436599999e-3 6.107686365100000e-3 6.313595685650000e-3
6.526387732520000e-3 6.746288821589999e-3 6.973532455919999e-3 7.208359536250000e-3
7.451018576330000e-3 7.701765923170000e-3 7.960865982140000e-3 8.228591447050000e-3
8.505223535010000e-3 8.791052226150001e-3 9.086376508210002e-3 9.391504625740000e-3
9.706754334070000e-3 1.003245315770000e-2 1.036893865350000e-2 1.071655867750000e-2
1.107567165650000e-2 1.144664686370000e-2 1.182986469710000e-2 1.222571696270000e-2
1.263460716010000e-2 1.305695077100000e-2 1.349317555080000e-2 1.394372182180000e-2
1.440904276850000e-2 1.488960473420000e-2 1.538588751780000e-2 1.589838467140000e-2
1.642760379680000e-2 1.697406684150000e-2 1.753831039200000e-2 1.812088596430000e-2
1.872236029140000e-2 1.934331560530000e-2 1.998434991280000e-2 2.064607726560000e-2
2.132912802030000e-2 2.203414909020000e-2 2.276180418430000e-2 2.351277403500000e-2
2.428775660950000e-2 2.508746730540000e-2 2.591263912780000e-2 2.676402284470000e-2
2.764238711970000e-2 2.854851861850000e-2 2.948322208690000e-2 3.044732039670000e-2
3.144165455760000e-2 3.246708368990000e-2 3.352448495620000e-2 3.461475344670000e-2
3.573880201440000e-2 3.689756105670000e-2 3.809197823680000e-2 3.932301814190000e-2
4.059166187020001e-2 4.189890654459999e-2 4.324576474270000e-2 4.463326384030000e-2
4.606244525920000e-2 4.753436361340000e-2 4.905008574440000e-2 5.061068963890001e-2
5.221726321980000e-2 5.387090300040000e-2 5.557271259359999e-2 5.732380106460000e-2
5.912528111710000e-2 6.097826710160001e-2 6.288387283330001e-2 6.484320920840001e-2
6.685738160430001e-2 6.892748705080000e-2 7.105461115840001e-2 7.323982478769999e-2
7.548418044570000e-2 7.778870839190000e-2 8.015441243840000e-2 8.258226542559999e-2
8.507320435740001e-2 8.762812517610000e-2 9.024787715900001e-2 9.293325691779998e-2
9.568500198099999e-2 9.850378393870001e-2 1.013902011320000e-1 1.043447708660000e-1
1.073679211250000e-1 1.104599817730000e-1 1.136211752160000e-1 1.168516065190000e-1
1.201512529370000e-1 1.235199528740000e-1 1.269573942230000e-1 1.304631021000000e-1
1.340364259400000e-1 1.376765259640000e-1 1.413823589950000e-1 1.451526636280000e-1
1.489859447530000e-1 1.528804574470000e-1 1.568341902210000e-1 1.608448476730000e-1
1.649098325400000e-1 1.690262272010000e-1 1.731907746690000e-1 1.773998591090000e-1
1.816494859580000e-1 1.859352617210000e-1 1.902523735130000e-1 1.945955684700000e-1
1.989591331320000e-1 2.033368729390000e-1 2.077220919950000e-1 2.121075732740000e-1
2.164855594670000e-1 2.208477346940000e-1 2.251852073240000e-1 2.294884941880000e-1
2.337475064810000e-1 2.379515376890000e-1 2.420892539170000e-1 2.461486870050000e-1
2.501172308750000e-1 2.539816415730000e-1 2.577280415040000e-1 2.613419284040000e-1
2.648081895960000e-1 2.681111221570000e-1 2.712344595830000e-1 2.741614056280000e-1
2.768746759620000e-1 2.793565483330000e-1 2.815889219000000e-1 2.835533864130000e-1
2.852313018920000e-1 2.866038894120000e-1 2.876523335690000e-1 2.883578971390000e-1
2.887020483100000e-1 2.886666008390000e-1 2.882338672610000e-1 2.873868251900000e-1
2.861092965310000e-1 2.843861392070000e-1 2.822034507910000e-1 2.795487831390000e-1
2.764113668620000e-1 2.727823441490000e-1 2.686550081760000e-1 2.640250469960000e-1
2.588907895490000e-1 2.532534511580000e-1 2.471173757000000e-1 2.404902715040000e-1
2.333834380660000e-1 2.258119808050000e-1 2.177950114350000e-1 2.093558321120000e-1
2.005221023800000e-1 1.913259890860000e-1 1.818043009830000e-1 1.719986116090000e-1
1.619553762800000e-1 1.517260516020000e-1 1.413672287110000e-1 1.309407943040000e-1
1.205141362280000e-1 1.101604125080000e-1 9.995890376450001e-2 8.999546823350000e-2
8.036311517120000e-2 7.116270513259999e-2 6.250377304260001e-2 5.450545051890000e-2
4.729743575270000e-2 4.102092067570000e-2 3.582933466130000e-2 3.188870105040000e-2
2.937732839050000e-2 2.848447650060000e-2 2.940755735060000e-2 3.234736933450000e-2
3.750085033330000e-2 4.505091854700000e-2 5.515322736580000e-2 6.792021047890000e-2
8.340381614149999e-2 1.015800936600000e-1 1.223416961280000e-1 1.455089770770000e-1
1.708775158000000e-1 1.983171898670000e-1 2.277851779800000e-1 2.592397902050000e-1
2.926293177840000e-1 3.278920718770000e-1 3.649565352360000e-1 4.037416099760000e-1
4.441569662300000e-1 4.861035151790000e-1 5.294740075240000e-1 5.741537775339999e-1
6.200216127300000e-1 6.669507400480001e-1 7.148098518480000e-1 7.634640952270000e-1
8.127758644300000e-1 8.626052623910001e-1 9.128100629370000e-1 9.632451398179999e-1
1.013761406170000e0 1.064204538600000e0 1.114413822640000e0 1.164221553570000e0
1.213453242460000e0 1.261928737680000e0 1.309464062990000e0 1.355873696830000e0
1.400972912200000e0 1.444579952930000e0 1.486517875380000e0 1.526616068650000e0
1.564711468480000e0 1.600649566620000e0 1.634285259090000e0 1.665483610230000e0
1.694120552450000e0 1.720083561360000e0 1.743272319240000e0 1.763599387700000e0
1.780990781440000e0 1.795386229940000e0 1.806739541410000e0 1.815018812390000e0
1.820206638430000e0 1.822300182870000e0 1.821311138080000e0 1.817265571060000e0
1.810203659350000e0 1.800179313050000e0 1.787259693870000e0 1.771524630050000e0
1.753065941860000e0 1.731986678630000e0 1.708400284630000e0 1.682429695740000e0
1.654206385840000e0 1.623869365200000e0 1.591564150320000e0 1.557441707380000e0
1.521657388260000e0 1.484369861140000e0 1.445740053170000e0 1.405930106910000e0
1.365102366080000e0 1.323418391770000e0 1.281038022400000e0 1.238118477930000e0
1.194813519100000e0 1.151272661780000e0 1.107640454400000e0 1.064055818210000e0
1.020651455950000e0 9.775533281220000e-1 9.348802003110000e-1 8.927432606030001e-1
8.512458082710001e-1 8.104830128840000e-1 7.705417430870000e-1 7.315004641000000e-1
6.934292015540001e-1 6.563895704669999e-1 6.204348654850000e-1 5.856102107450000e-1
5.519527641080000e-1 5.194919735020001e-1 4.882498788780000e-1 4.582414568430000e-1
4.294750004630000e-1 4.019525307240000e-1 3.756702315270000e-1 3.506189043490000e-1
3.267844343610000e-1 3.041482641450000e-1 2.826878672170000e-1 2.623772179440000e-1
2.431872509260000e-1 2.250863072130000e-1 2.080405616480000e-1 1.920144296960000e-1
1.769709494520000e-1 1.628721382240000e-1 1.496793208280000e-1 1.373534299510000e-1
1.258552770460000e-1 1.151457949250000e-1 1.051862516350000e-1 9.593843740170000e-2
8.736482508380000e-2 7.942870633790000e-2 7.209430454070000e-2 6.532686687660000e-2
5.909273700249999e-2 5.335941072060000e-2 4.809557622370000e-2 4.327114120790000e-2
3.885724839040000e-2 3.482628145930000e-2 3.115186282590000e-2 2.780884484890000e-2
2.477329563270000e-2 2.202248066920000e-2 1.953484111190000e-2 1.728996955580000e-2
1.526858380930000e-2 1.345249918470000e-2 1.182459954630000e-2 1.036880738210000e-2
9.070052968800001e-3 7.914242735429999e-3 6.888226813810000e-3 5.979765810330000e-3
5.177496778750000e-3 4.470898428830000e-3 3.850255590060000e-3 3.306623006030001e-3
2.831788540490000e-3 2.418235924360000e-3 2.059107184810000e-3 1.748164932130000e-3
1.479754687750000e-3 1.248767455880000e-3 1.050602739930000e-3 8.811322084190000e-4
7.366642045230000e-4 6.139092841220000e-4 5.099469487379999e-4 4.221937217650000e-4
3.483726929920000e-4 2.864846337190000e-4 2.347807596630000e-4 1.917371951230000e-4
1.560311679180000e-4 1.265189426500000e-4 1.022154791300000e-4 8.227578453420001e-5
6.597791160549999e-5 5.270754160329999e-5 4.194407940040001e-5 3.324817936880000e-5
2.625061418290000e-5 2.064239439530000e-5 1.616604432200000e-5 1.260793926020000e-5
9.791610084189999e-6 7.571923611540000e-6 5.830050558950001e-6 4.469137188860000e-6
3.410601678159999e-6 2.590981618100000e-6 1.959264707710000e-6 1.474640478360000e-6
1.104616651820000e-6 8.234493804460000e-7 6.108420575699999e-7 4.508725324310000e-7
3.311133490190000e-7 2.419147437920000e-7 1.758226034670001e-7 1.271092231580000e-7
9.139700262429997e-8 6.535836463940001e-8 4.647782459140001e-8 3.286442962940000e-8
2.310476893620000e-8 1.614846098720000e-8 1.121947655500000e-8 7.747885123400000e-9
5.317643750249999e-9 3.626906386699999e-9 2.458041570699999e-9 1.655128683120000e-9
1.107176913890000e-9 7.356939595370000e-10 4.855384238900001e-10 3.182341061960001e-10
2.071171777770000e-10 1.338383193150000e-10 8.585934251439999e-11 5.467442519580000e-11
3.455543785370000e-11 2.167350064610000e-11 1.348858026980000e-11 8.328580582179999e-12
5.101353211520000e-12 3.099206619640000e-12 1.867267226730000e-12 1.115558310100000e-12
6.607633478240000e-13 3.879756229160000e-13 2.257894496080000e-13 1.302202013720000e-13
7.441530893960002e-14 4.212966455890000e-14 2.362582257230001e-14 1.312167815620000e-14
7.216463821660001e-15 3.929343760070001e-15 2.117887280740000e-15 1.129791651950000e-15
5.963906187980001e-16 3.114749448860000e-16 1.609151443679999e-16 8.221905286669998e-17
4.154020928850000e-17 2.074928314770000e-17 1.024452371550000e-17 4.998608219079999e-18
2.409836120760001e-18 1.147669472490000e-18 5.398123997159997e-19 2.507056713370001e-19
1.149382955990000e-19 5.199924949470001e-20 2.320287581900001e-20 1.020261974950000e-20
4.412827862459999e-21 1.869738272830000e-21 7.684755589630000e-22 2.987733880450000e-22
1.023916649250000e-22 2.418150224689999e-23 4.553824761809999e-25 0.000000000000000e0
0.000000000000000e0 0.000000000000000e0 0.000000000000000e0 0.000000000000000e0
0.000000000000000e0 0.000000000000000e0 0.000000000000000e0 0.000000000000000e0
0.000000000000000e0 0.000000000000000e0 0.000000000000000e0 0.000000000000000e0
0.000000000000000e0 0.000000000000000e0 0.000000000000000e0 0.000000000000000e0
0.000000000000000e0 0.000000000000000e0 0.000000000000000e0 0.000000000000000e0
0.000000000000000e0 0.000000000000000e0 0.000000000000000e0 0.000000000000000e0
0.000000000000000e0 0.000000000000000e0 0.000000000000000e0 0.000000000000000e0
0.000000000000000e0 0.000000000000000e0 0.000000000000000e0 0.000000000000000e0
0.000000000000000e0 0.000000000000000e0 0.000000000000000e0 0.000000000000000e0
0.000000000000000e0 0.000000000000000e0 0.000000000000000e0 0.000000000000000e0
0.000000000000000e0 0.000000000000000e0 0.000000000000000e0 0.000000000000000e0
0.000000000000000e0 0.000000000000000e0 0.000000000000000e0 0.000000000000000e0
0.000000000000000e0 0.000000000000000e0 0.000000000000000e0 0.000000000000000e0
0.000000000000000e0 0.000000000000000e0 0.000000000000000e0 0.000000000000000e0
0.000000000000000e0 0.000000000000000e0 0.000000000000000e0 0.000000000000000e0
0.000000000000000e0 0.000000000000000e0 0.000000000000000e0 0.000000000000000e0
0.000000000000000e0 0.000000000000000e0 0.000000000000000e0 0.000000000000000e0
0.000000000000000e0 0.000000000000000e0 0.000000000000000e0 0.000000000000000e0
0.000000000000000e0 0.000000000000000e0 0.000000000000000e0 0.000000000000000e0
0.000000000000000e0 0.000000000000000e0 0.000000000000000e0 0.000000000000000e0
0.000000000000000e0 0.000000000000000e0 0.000000000000000e0
</PP_RHOATOM>
</UPF>
