 Entering Gaussian System
 *********************************************
 Gaussian 98:
 frequency output generated by the xtb code
 *********************************************
                         Standard orientation:
 --------------------------------------------------------------------
  Center     Atomic     Atomic              Coordinates (Angstroms)
  Number     Number      Type              X           Y           Z
 --------------------------------------------------------------------
    1          8             0        0.000000    0.000000    0.105252
    2          1             0        0.000002    0.772497   -0.463425
    3          1             0       -0.000006   -0.772498   -0.463422
 --------------------------------------------------------------------
     1 basis functions        1 primitive gaussians
     1 alpha electrons        1 beta electrons

 Harmonic frequencies (cm**-1), IR intensities (km*mol⁻¹),
 Raman scattering activities (A**4/amu), Raman depolarization ratios,
 reduced masses (AMU), force constants (mDyne/A) and normal coordinates:
                      1                      2                      3
                        a                      a                      a 
 Frequencies --  1539.0838              3642.2813              3650.7253
 Red. masses --     2.1462                 1.5472                 2.1404
 Frc consts  --     0.0000                 0.0000                 0.0000
 IR Inten    --   133.2657                 6.7762                16.6778
 Raman Activ --     0.0000                 0.0000                 0.0000
 Depolar     --     0.0000                 0.0000                 0.0000
 Atom AN      X      Y      Z        X      Y      Z        X      Y      Z
   1   8     0.00   0.00   0.28    -0.00  -0.00  -0.19    -0.00  -0.27   0.00
   2   1    -0.00  -0.40  -0.55    -0.00  -0.58   0.38     0.00   0.55  -0.40
   3   1     0.00   0.40  -0.55     0.00   0.58   0.38     0.00   0.55   0.40
