
     Program PWSCF v.7.5 starts on  4Feb2026 at 10: 8:40 

     This program is part of the open-source Quantum ESPRESSO suite
     for quantum simulation of materials; please cite
         "P. Giannozzi et al., J. Phys.:Condens. Matter 21 395502 (2009);
         "P. Giannozzi et al., J. Phys.:Condens. Matter 29 465901 (2017);
         "P. Giannozzi et al., J. Chem. Phys. 152 154105 (2020);
          URL http://www.quantum-espresso.org", 
     in publications or presentations arising from this work. More details at
     http://www.quantum-espresso.org/quote

     Parallel version (MPI), running on     1 processors

     MPI processes distributed on     1 nodes
     0 MiB available memory on the printing compute node when the environment starts

     Waiting for input...
     Reading input from standard input

     Current dimensions of program PWSCF are:
     Max number of different atomic species (ntypx) = 10
     Max number of k-points (npk) =  40000
     Max angular momentum in pseudopotentials (lmaxx) =  4

     Subspace diagonalization in iterative solution of the eigenvalue problem:
     a serial algorithm will be used


     G-vector sticks info
     --------------------
     sticks:   dense  smooth     PW     G-vecs:    dense   smooth      PW
     Sum         433     433    139                 5961     5961    1067

     Using Slab Decomposition



     bravais-lattice index     =            2
     lattice parameter (alat)  =      10.2000  a.u.
     unit-cell volume          =     265.3020 (a.u.)^3
     number of atoms/cell      =            2
     number of atomic types    =            1
     number of electrons       =         8.00
     number of Kohn-Sham states=           12
     kinetic-energy cutoff     =      30.0000  Ry
     charge density cutoff     =     120.0000  Ry
     scf convergence threshold =      1.0E-08
     mixing beta               =       0.7000
     number of iterations used =            8  plain     mixing
     Exchange-correlation= PBE
                           (   1   4   3   4   0   0   0)

     celldm(1)=  10.200000  celldm(2)=   0.000000  celldm(3)=   0.000000
     celldm(4)=   0.000000  celldm(5)=   0.000000  celldm(6)=   0.000000

     crystal axes: (cart. coord. in units of alat)
               a(1) = (  -0.500000   0.000000   0.500000 )  
               a(2) = (   0.000000   0.500000   0.500000 )  
               a(3) = (  -0.500000   0.500000   0.000000 )  

     reciprocal axes: (cart. coord. in units 2 pi/alat)
               b(1) = ( -1.000000 -1.000000  1.000000 )  
               b(2) = (  1.000000  1.000000  1.000000 )  
               b(3) = ( -1.000000  1.000000 -1.000000 )  


     PseudoPot. # 1 for Si read from file:
     $HOME/Downloads/sg15_oncv_upf_2020-02-06/Si_ONCV_PBE-1.2.upf
     MD5 check sum: 7f029a58b69e3aa87b46a36c608bf45e
     Pseudo is Norm-conserving, Zval =  4.0
     Generated using ONCVPSP code by D. R. Hamann
     Using radial grid of  602 points,  4 beta functions with: 
                l(1) =   0
                l(2) =   0
                l(3) =   1
                l(4) =   1

     atomic species   valence    mass     pseudopotential
     Si                4.00    28.08550     Si( 1.00)

     48 Sym. Ops., with inversion, found (24 have fractional translation)



   Cartesian axes

     site n.     atom                  positions (alat units)
         1        Si     tau(   1) = (   0.0000000   0.0000000   0.0000000  )
         2        Si     tau(   2) = (  -0.2500000   0.2500000   0.2500000  )

     number of k points=    10
                       cart. coord. in units 2pi/alat
        k(    1) = (  -0.1250000   0.1250000   0.1250000), wk =   0.0625000
        k(    2) = (  -0.3750000   0.3750000  -0.1250000), wk =   0.1875000
        k(    3) = (   0.3750000  -0.3750000   0.6250000), wk =   0.1875000
        k(    4) = (   0.1250000  -0.1250000   0.3750000), wk =   0.1875000
        k(    5) = (  -0.1250000   0.6250000   0.1250000), wk =   0.1875000
        k(    6) = (   0.6250000  -0.1250000   0.8750000), wk =   0.3750000
        k(    7) = (   0.3750000   0.1250000   0.6250000), wk =   0.3750000
        k(    8) = (  -0.1250000  -0.8750000   0.1250000), wk =   0.1875000
        k(    9) = (  -0.3750000   0.3750000   0.3750000), wk =   0.0625000
        k(   10) = (   0.3750000  -0.3750000   1.1250000), wk =   0.1875000

     Dense  grid:     5961 G-vectors     FFT dimensions: (  32,  32,  32)

     Estimated max dynamical RAM per process >       7.21 MB

     Initial potential from superposition of free atoms

     starting charge       7.9075, renormalised to       8.0000
     Starting wfcs are random

     total cpu time spent up to now is        0.1 secs

     Self-consistent Calculation

     iteration #  1     ecut=    30.00 Ry     beta= 0.70
     Davidson diagonalization with overlap
     ethr =  1.00E-02,  avg # of iterations =  7.6

     Threshold (ethr) on eigenvalues was too large:
     Diagonalizing with lowered threshold

     Davidson diagonalization with overlap
     ethr =  6.75E-04,  avg # of iterations =  1.1

     total cpu time spent up to now is        0.3 secs

     total energy              =     -15.76079820 Ry
     estimated scf accuracy    <       0.05453489 Ry

     iteration #  2     ecut=    30.00 Ry     beta= 0.70
     Davidson diagonalization with overlap
     ethr =  6.82E-04,  avg # of iterations =  1.0

     total cpu time spent up to now is        0.4 secs

     total energy              =     -15.76346521 Ry
     estimated scf accuracy    <       0.00195008 Ry

     iteration #  3     ecut=    30.00 Ry     beta= 0.70
     Davidson diagonalization with overlap
     ethr =  2.44E-05,  avg # of iterations =  5.9

     total cpu time spent up to now is        0.4 secs

     total energy              =     -15.76355638 Ry
     estimated scf accuracy    <       0.00004999 Ry

     iteration #  4     ecut=    30.00 Ry     beta= 0.70
     Davidson diagonalization with overlap
     ethr =  6.25E-07,  avg # of iterations =  3.4

     total cpu time spent up to now is        0.5 secs

     total energy              =     -15.76356191 Ry
     estimated scf accuracy    <       0.00000006 Ry

     iteration #  5     ecut=    30.00 Ry     beta= 0.70
     Davidson diagonalization with overlap
     ethr =  7.99E-10,  avg # of iterations =  3.6

     total cpu time spent up to now is        0.6 secs

     End of self-consistent calculation

          k =-0.1250 0.1250 0.1250 (   734 PWs)   bands (ev):

    -5.4632   4.8151   6.1301   6.1301   8.9628   9.4228   9.4228  11.2714
    13.6647  13.6647  15.2272  17.1591

          k =-0.3750 0.3750-0.1250 (   741 PWs)   bands (ev):

    -4.4002   1.7558   4.0761   5.6424   9.1828  10.1110  10.2900  12.7839
    12.8872  16.3323  16.6002  18.9617

          k = 0.3750-0.3750 0.6250 (   738 PWs)   bands (ev):

    -3.2076  -0.4067   4.1155   4.8399   8.6285   9.9531  10.5237  13.8406
    15.4535  16.9608  18.0720  18.1677

          k = 0.1250-0.1250 0.3750 (   738 PWs)   bands (ev):

    -4.9174   3.1792   5.0826   5.1673   8.5670  10.1924  10.9226  11.1711
    14.0404  14.6316  16.5162  18.0870

          k =-0.1250 0.6250 0.1250 (   734 PWs)   bands (ev):

    -3.8503   1.4554   3.7072   4.1802   7.7467   9.2974  12.4893  12.7406
    16.4493  16.7712  18.1776  19.7397

          k = 0.6250-0.1250 0.8750 (   731 PWs)   bands (ev):

    -2.1423  -0.5630   2.2854   3.4083   8.7950  10.7035  11.7472  13.9280
    14.9026  17.6069  18.7718  20.8568

          k = 0.3750 0.1250 0.6250 (   738 PWs)   bands (ev):

    -3.4156   0.5308   3.0482   4.4619   9.3002   9.9885  11.4676  12.4027
    15.5116  16.2403  18.4944  19.5084

          k =-0.1250-0.8750 0.1250 (   739 PWs)   bands (ev):

    -2.3257  -0.4572   2.9242   3.6990   7.2727   8.3636  14.7620  14.8733
    17.2994  17.3017  18.8152  19.4930

          k =-0.3750 0.3750 0.3750 (   748 PWs)   bands (ev):

    -3.9479   0.4065   5.3245   5.3245   8.1309   9.8670   9.8670  14.3292
    15.0372  15.0372  16.2435  20.2910

          k = 0.3750-0.3750 1.1250 (   731 PWs)   bands (ev):

    -2.6956  -0.2813   2.3607   4.5093   8.2450  11.9284  11.9309  13.4422
    14.4303  14.5394  19.0731  21.3653

     highest occupied, lowest unoccupied level (ev):     6.1301    7.2727

!    total energy              =     -15.76356213 Ry
     estimated scf accuracy    <          1.6E-09 Ry

     The total energy is the sum of the following terms:
     one-electron contribution =       4.88576772 Ry
     hartree contribution      =       1.08525154 Ry
     xc contribution           =      -4.83482279 Ry
     ewald contribution        =     -16.89975860 Ry

     convergence has been achieved in   5 iterations

     Forces acting on atoms (cartesian axes, Ry/au):

     atom    1 type  1   force =    -0.00000000    0.00000000   -0.00000000
     atom    2 type  1   force =     0.00000000   -0.00000000   -0.00000000

     Total force =     0.000000     Total SCF correction =     0.000000


     Computing stress (Cartesian axis) and pressure

          total   stress  (Ry/bohr**3)                   (kbar)     P=       42.13
   0.00028637   0.00000000   0.00000000           42.13        0.00        0.00
   0.00000000   0.00028637  -0.00000000            0.00       42.13       -0.00
   0.00000000  -0.00000000   0.00028637            0.00       -0.00       42.13


     Writing all to output data dir ./work/si.save/ :
     XML data file, charge density, pseudopotentials, collected wavefunctions

     init_run     :      0.07s CPU      0.07s WALL (       1 calls)
     electrons    :      0.53s CPU      0.54s WALL (       1 calls)
     forces       :      0.00s CPU      0.00s WALL (       1 calls)
     stress       :      0.01s CPU      0.01s WALL (       1 calls)

     Called by init_run:
     wfcinit      :      0.03s CPU      0.03s WALL (       1 calls)
     potinit      :      0.01s CPU      0.01s WALL (       1 calls)
     hinit0       :      0.03s CPU      0.03s WALL (       1 calls)

     Called by electrons:
     c_bands      :      0.44s CPU      0.45s WALL (       6 calls)
     sum_band     :      0.07s CPU      0.07s WALL (       6 calls)
     v_of_rho     :      0.02s CPU      0.02s WALL (       6 calls)
     mix_rho      :      0.00s CPU      0.00s WALL (       6 calls)

     Called by c_bands:
     init_us_2    :      0.01s CPU      0.01s WALL (     150 calls)
     cegterg      :      0.44s CPU      0.44s WALL (      60 calls)

     Called by *egterg:
     cdiaghg      :      0.02s CPU      0.02s WALL (     276 calls)
     h_psi        :      0.41s CPU      0.41s WALL (     296 calls)
     g_psi        :      0.00s CPU      0.00s WALL (     226 calls)

     Called by h_psi:
     h_psi:calbec :      0.01s CPU      0.01s WALL (     296 calls)
     vloc_psi     :      0.39s CPU      0.39s WALL (     296 calls)
                                        0.00s GPU  (     296 calls)
     add_vuspsi   :      0.01s CPU      0.01s WALL (     296 calls)

     General routines
     calbec       :      0.02s CPU      0.02s WALL (     466 calls)
     fft          :      0.03s CPU      0.03s WALL (      68 calls)
     ffts         :      0.00s CPU      0.00s WALL (       6 calls)
     fftw         :      0.39s CPU      0.40s WALL (    5236 calls)

     Parallel routines

     PWSCF        :      0.62s CPU      0.64s WALL


   This run was terminated on:  10: 8:41   4Feb2026            

=------------------------------------------------------------------------------=
   JOB DONE.
=------------------------------------------------------------------------------=
Note: The following floating-point exceptions are signalling: IEEE_INVALID_FLAG IEEE_DIVIDE_BY_ZERO IEEE_OVERFLOW_FLAG IEEE_UNDERFLOW_FLAG
